<?xml version="1.0"?>
<VTKFile type="UnstructuredGrid" version="0.1" byte_order="LittleEndian" header_type="UInt32" compressor="vtkZLibDataCompressor">
  <UnstructuredGrid>
    <Piece NumberOfPoints="405" NumberOfCells="138">
      <PointData Scalars="Contrainte:von Mises">
        <DataArray type="Float32" Name="Contrainte:von Mises" format="ascii" RangeMin="1.2396848202" RangeMax="85.869117737">
          67.590240479 23.089769363 32.567722321 84.381217957 26.818597794 32.308254242
          67.698249817 84.172897339 22.509429932 67.402801514 83.779327393 31.910600662
          67.33808136 84.060882568 24.970401764 29.527029037 44.433082581 36.204174042
          37.860584259 54.145874023 36.139789581 37.382968903 61.027488708 61.33902359
          24.020736694 23.889335632 25.431764603 21.117713928 59.624893188 62.61157608
          35.925189972 37.51058197 60.298900604 44.963310242 36.463798523 37.769241333
          60.726074219 61.958194733 26.79901886 21.976955414 24.934886932 22.914535522
          59.832424164 61.677974701 53.536155701 38.369270325 34.853199005 13.288079262
          35.154083252 13.337059021 53.174873352 39.294612885 53.209632874 39.521644592
          53.569381714 38.551353455 33.937068939 12.864981651 34.11138916 12.695113182
          42.532283783 41.078342438 59.35005188 41.037902832 41.52066803 47.559257507
          40.967388153 54.207019806 31.45627594 26.977537155 9.9649095535 11.990145683
          31.442827225 26.986593246 40.705356598 42.1170578 59.248592377 40.745689392
          41.969955444 47.908752441 41.34280777 54.957336426 32.596179962 28.359266281
          20.936220169 22.066322327 32.485626221 28.365262985 78.757583618 32.305660248
          31.874603271 85.619239807 31.576044083 80.728050232 27.861749649 65.351570129
          31.463047028 69.091743469 32.64723587 65.670318604 28.262481689 69.056747437
          32.063976288 80.484191895 31.370536804 78.593597412 32.307498932 85.869117737
          31.730190277 78.421775818 80.087417603 30.904689789 85.592964172 31.20539093
          78.653762817 30.833059311 85.500602722 31.751962662 80.3852005 27.043428421
          64.421035767 30.623786926 68.045005798 30.1472435 64.648887634 27.173540115
          67.911209106 30.550987244 34.08052063 23.131416321 73.361885071 34.254062653
          71.025741577 24.489349365 33.270759583 52.124790192 34.924907684 21.350624084
          72.210632324 32.612812042 25.342281342 70.977485657 34.123443604 42.595329285
          28.055753708 42.106113434 28.287027359 63.656475067 45.469871521 50.396072388
          22.217086792 11.056175232 11.709070206 10.330071449 11.103309631 20.778043747
          46.417186737 49.70067215 62.748382568 42.057285309 28.105581284 28.328321457
          42.363826752 33.965370178 72.851783752 22.898813248 33.80834198 70.1901474
          24.339618683 33.003551483 51.138957977 35.271286011 21.697174072 72.733543396
          32.923881531 25.623968124 71.0417099 34.454219818 41.424591064 28.682237625
          40.831424713 28.908311844 63.945518494 45.942970276 48.845741272 24.497795105
          16.609638214 16.545740128 11.628302574 12.237925529 23.028470993 46.152870178
          48.124317169 62.514892578 40.816497803 28.669462204 28.928413391 41.186683655
          77.209533691 25.393022537 42.852214813 27.81294632 58.080581665 22.772037506
          58.138336182 28.326112747 22.89515686 25.17801857 77.611907959 44.343097687
          24.820627213 77.475341797 44.471271515 77.152854919 24.571130753 43.050476074
          27.243268967 56.842468262 22.00015831 56.837936401 27.329906464 21.931219101
          31.211284637 16.790845871 46.832717896 76.23664093 41.192497253 30.932880402
          18.580951691 39.34280777 75.779747009 47.397598267 38.791137695 26.111484528
          28.597288132 46.635654449 9.311340332 9.4743671417 9.1197919846 50.863761902
          38.650794983 26.024440765 28.607322693 46.695011139 76.03742981 16.680898666
          30.969640732 40.847225189 31.214790344 18.82925415 39.739414215 76.620071411
          48.017795563 37.665691376 26.668796539 29.812456131 44.118167877 13.736643791
          15.37428093 20.56870079 48.570682526 37.528926849 26.538936615 29.792617798
          39.800098419 12.287542343 36.642608643 15.890809059 28.610994339 27.901165009
          15.720994949 36.950069427 12.204255104 39.603439331 33.319766998 46.333461761
          13.924412727 12.704147339 36.77205658 37.198814392 12.772709846 13.99329567
          46.926654816 12.243840218 32.690818787 40.025669098 36.363109589 15.856040955
          28.523794174 26.249465942 15.656834602 36.315628052 12.164778709 39.840991974
          33.053020477 46.089317322 13.912197113 13.546243668 36.414813995 37.407817841
          13.542676926 13.94669342 46.923992157 32.884353638 26.717931747 26.068883896
          28.57192421 27.328458786 2.5726249218 40.96635437 1.2396848202 45.989707947
          26.941953659 34.13666153 13.795823097 27.23056221 27.621261597 47.815319061
          29.759710312 19.645090103 26.014486313 13.639878273 47.529396057 25.723022461
          19.56126976 31.516649246 27.253774643 45.952602386 34.626171112 26.582715988
          26.484434128 45.600254059 27.042621613 34.408000946 13.671443939 28.091012955
          30.406513214 27.399124146 47.535453796 26.975152969 26.194961548 13.79969883
          47.585144043 25.809114456 30.520162582 30.383836746 27.192527771 46.376991272
          34.405239105 28.461658478 28.119268417 20.692827225 20.973274231 23.587779999
          23.148807526 32.326789856 2.707572937 2.2533640862 25.696849823 28.653896332
          32.527004242 48.478397369 36.788047791 33.611488342 24.813184738 25.307024002
          25.249406815 33.610599518 25.642156601 36.968135834 47.904373169 31.789762497
          28.972919464 26.389331818 47.712596893 31.727031708 28.756641388 26.276208878
          25.553264618 28.461912155 32.064094543 48.351470947 36.33498764 33.776042938
          23.376470566 25.275800705 25.218835831 33.769851685 23.867618561 36.408184052
          11.633331299 16.073575974 16.165189743 11.565013885 27.44219017 26.362092972
          11.547397614 13.810194969 13.698143959 11.666863441 27.733449936 27.262750626
          1.7871466875 3.1391026974 31.869224548
        </DataArray>
      </PointData>
      <CellData>
      </CellData>
      <Points>
        <DataArray type="Float32" Name="Points" NumberOfComponents="3" format="ascii" RangeMin="3.25" RangeMax="66.370174024">
          35 -12 0 20 0 0
          20 0 6 35 -12 6
          50 0 0 50 0 6
          35 12 0 35 12 6
          5 0 0 -10 -12 0
          -10 -12 6 5 0 6
          -10 12 0 -10 12 6
          -25 0 0 -25 0 6
          12.5 -6 0 35 -24 0
          35 -24 6 12.5 -6 6
          -10 -24 0 -10 -24 6
          -25 -12 0 -25 -12 6
          -40 -12 0 -40 -12 6
          -40 12 0 -40 12 6
          -25 12 0 -25 12 6
          -10 24 0 -10 24 6
          12.5 6 0 12.5 6 6
          35 24 0 35 24 6
          50 12 0 50 12 6
          65 12 0 65 12 6
          65 -12 0 65 -12 6
          50 -12 0 50 -12 6
          27.5 -6 0 27.5 -6 6
          42.5 -6 0 42.5 -6 6
          42.5 6 0 42.5 6 6
          27.5 6 0 27.5 6 6
          -2.5 -6 0 -2.5 -6 6
          -2.5 6 0 -2.5 6 6
          -17.5 6 0 -17.5 6 6
          -17.5 -6 0 -17.5 -6 6
          27.5 -18 0 20 -12 0
          20 -12 6 27.5 -18 6
          -2.5 -18 0 5 -12 0
          -2.5 -18 6 5 -12 6
          -17.5 -18 0 -17.5 -18 6
          -40 0 0 -40 0 6
          -17.5 18 0 -17.5 18 6
          5 12 0 -2.5 18 0
          5 12 6 -2.5 18 6
          27.5 18 0 20 12 0
          27.5 18 6 20 12 6
          42.5 18 0 42.5 18 6
          65 0 0 65 0 6
          42.5 -18 0 42.5 -18 6
          31.25 -9 0 23.75 -3 0
          20 0 3 31.25 -9 6
          23.75 -3 6 35 -12 3
          46.25 -3 0 38.75 -9 0
          46.25 -3 6 38.75 -9 6
          50 0 3 38.75 9 0
          46.25 3 0 38.75 9 6
          46.25 3 6 35 12 3
          23.75 3 0 31.25 9 0
          23.75 3 6 31.25 9 6
          1.25 -3 0 -6.25 -9 0
          -10 -12 3 1.25 -3 6
          -6.25 -9 6 5 0 3
          -6.25 9 0 1.25 3 0
          -6.25 9 6 1.25 3 6
          -10 12 3 -21.25 3 0
          -13.75 9 0 -21.25 3 6
          -13.75 9 6 -25 0 3
          -13.75 -9 0 -21.25 -3 0
          -13.75 -9 6 -21.25 -3 6
          31.25 -21 0 23.75 -15 0
          16.25 -9 0 35 -24 3
          16.25 -9 6 23.75 -15 6
          31.25 -21 6 12.5 -6 3
          -6.25 -21 0 1.25 -15 0
          8.75 -9 0 -6.25 -21 6
          1.25 -15 6 8.75 -9 6
          -10 -24 3 -21.25 -15 0
          -13.75 -21 0 -21.25 -15 6
          -13.75 -21 6 -25 -12 3
          -32.5 -12 0 -32.5 -12 6
          -40 -12 3 -40 -6 0
          -40 6 0 -40 6 6
          -40 -6 6 -40 12 3
          -32.5 12 0 -32.5 12 6
          -25 12 3 -21.25 15 0
          -13.75 21 0 -13.75 21 6
          -21.25 15 6 -10 24 3
          8.75 9 0 1.25 15 0
          -6.25 21 0 8.75 9 6
          1.25 15 6 -6.25 21 6
          12.5 6 3 31.25 21 0
          23.75 15 0 16.25 9 0
          31.25 21 6 23.75 15 6
          16.25 9 6 35 24 3
          46.25 15 0 38.75 21 0
          46.25 15 6 38.75 21 6
          50 12 3 57.5 12 0
          57.5 12 6 65 12 3
          65 -6 0 65 6 0
          65 -6 6 65 6 6
          65 -12 3 57.5 -12 0
          57.5 -12 6 50 -12 3
          46.25 -15 0 38.75 -21 0
          38.75 -21 6 46.25 -15 6
          31.25 -9 3 23.75 -3 3
          27.5 -6 3 46.25 -3 3
          38.75 -9 3 42.5 -6 3
          38.75 9 3 46.25 3 3
          42.5 6 3 23.75 3 3
          31.25 9 3 27.5 6 3
          1.25 -3 3 -6.25 -9 3
          -2.5 -6 3 -6.25 9 3
          1.25 3 3 -2.5 6 3
          -21.25 3 3 -13.75 9 3
          -17.5 6 3 -13.75 -9 3
          -21.25 -3 3 -17.5 -6 3
          31.25 -21 3 23.75 -15 3
          20 -12 3 16.25 -9 3
          27.5 -18 3 -6.25 -21 3
          1.25 -15 3 -2.5 -18 3
          8.75 -9 3 5 -12 3
          -21.25 -15 3 -13.75 -21 3
          -17.5 -18 3 -32.5 -12 3
          -40 -6 3 -40 6 3
          -40 0 3 -32.5 12 3
          -21.25 15 3 -13.75 21 3
          -17.5 18 3 5 12 3
          8.75 9 3 1.25 15 3
          -6.25 21 3 -2.5 18 3
          31.25 21 3 23.75 15 3
          27.5 18 3 16.25 9 3
          20 12 3 46.25 15 3
          38.75 21 3 42.5 18 3
          57.5 12 3 65 -6 3
          65 6 3 65 0 3
          57.5 -12 3 46.25 -15 3
          38.75 -21 3 42.5 -18 3
          38.75 -15 6 35 -18 6
          46.25 -9 6 42.5 -12 6
          57.5 -6 6 57.5 6 6
          42.5 12 6 46.25 9 6
          35 18 6 38.75 15 6
          31.25 15 6 23.75 9 6
          27.5 12 6 16.25 3 6
          20 6 6 5 6 6
          8.75 3 6 -2.5 12 6
          1.25 9 6 -10 18 6
          -6.25 15 6 -13.75 15 6
          -21.25 9 6 -17.5 12 6
          -32.5 6 6 -32.5 -6 6
          -17.5 -12 6 -21.25 -9 6
          -10 -18 6 -13.75 -15 6
          -6.25 -15 6 1.25 -9 6
          -2.5 -12 6 8.75 -3 6
          5 -6 6 20 -6 6
          16.25 -3 6 27.5 -12 6
          23.75 -9 6 31.25 -15 6
          -25 -6 6 -25 6 6
          50 6 6 50 -6 6
          57.5 0 6 12.5 1.3322676296e-15 6
          -32.5 0 6 46.25 -9 0
          42.5 -12 0 38.75 -15 0
          35 -18 0 31.25 -15 0
          27.5 -12 0 23.75 -9 0
          20 -6 0 16.25 -3 0
          -6.25 -15 0 -10 -18 0
          1.25 -9 0 -2.5 -12 0
          8.75 -3 0 5 -6 0
          -17.5 -12 0 -21.25 -9 0
          -13.75 -15 0 -32.5 -6 0
          -32.5 6 0 -21.25 9 0
          -17.5 12 0 -13.75 15 0
          -10 18 0 5 6 0
          8.75 3 0 -2.5 12 0
          1.25 9 0 -6.25 15 0
          31.25 15 0 35 18 0
          23.75 9 0 27.5 12 0
          16.25 3 0 20 6 0
          42.5 12 0 46.25 9 0
          38.75 15 0 57.5 6 0
          57.5 -6 0 -25 -6 0
          -25 6 0 50 -6 0
          50 6 0 12.5 1.6653345369e-15 0
          -32.5 0 0 57.5 0 0
          27.5 -12 3 31.25 -15 3
          20 -6 3 23.75 -9 3
          46.25 -9 3 38.75 -15 3
          50 -6 3 42.5 -12 3
          42.5 12 3 38.75 15 3
          50 6 3 46.25 9 3
          23.75 9 3 20 6 3
          31.25 15 3 27.5 12 3
          1.25 -9 3 5 -6 3
          -6.25 -15 3 -2.5 -12 3
          -2.5 12 3 -6.25 15 3
          5 6 3 1.25 9 3
          -21.25 9 3 -13.75 15 3
          -25 6 3 -17.5 12 3
          -17.5 -12 3 -13.75 -15 3
          -25 -6 3 -21.25 -9 3
          35 -18 3 16.25 -3 3
          8.75 -3 3 -10 -18 3
          -32.5 -6 3 -32.5 6 3
          -10 18 3 8.75 3 3
          16.25 3 3 35 18 3
          57.5 6 3 57.5 -6 3
          57.5 0 3 -32.5 0 3
          12.5 1.301042607e-15 3
        </DataArray>
      </Points>
      <Cells>
        <DataArray type="Int32" Name="connectivity" format="ascii" RangeMin="0" RangeMax="404">
          44 0 45 63 88 198
          200 358 359 301 1 45
          2 62 199 92 90 360
          302 299 3 45 0 63
          91 198 93 303 301 359
          45 1 44 62 199 89
          200 302 360 361 46 4
          47 42 94 201 203 311
          353 362 0 47 3 87
          202 97 93 363 267 264
          5 47 4 43 96 201
          98 307 266 364 47 0
          46 87 202 95 203 267
          363 365 48 6 49 83
          99 204 206 366 367 270
          4 49 5 37 205 102
          98 368 271 306 7 49
          6 83 101 204 103 273
          270 367 49 4 48 36
          205 100 206 369 354 347
          50 1 51 81 104 207
          209 370 371 275 6 51
          7 80 208 107 103 372
          276 274 2 51 1 81
          106 207 90 278 275 371
          51 6 50 80 208 105
          209 276 372 373 52 8
          53 67 108 210 212 374
          375 295 9 53 10 66
          211 112 110 376 296 294
          11 53 8 67 111 210
          113 298 295 375 53 9
          52 66 211 109 212 296
          376 377 54 12 55 77
          114 213 215 378 379 281
          8 55 11 76 214 117
          113 380 282 279 13 55
          12 77 116 213 118 284
          281 379 55 8 54 76
          214 115 215 282 380 381
          56 14 57 28 119 216
          218 331 352 382 12 57
          13 73 217 122 118 383
          287 285 15 57 14 29
          121 216 123 305 286 384
          57 12 56 73 217 120
          218 287 383 385 58 9
          59 69 124 219 221 386
          387 290 14 59 15 23
          220 127 123 388 291 304
          10 59 9 69 126 219
          110 293 290 387 59 14
          58 22 220 125 221 389
          351 327 17 63 18 0
          222 134 131 314 359 390
          60 61 63 44 129 223
          226 316 317 358 61 16
          62 1 130 225 224 318
          319 360 19 62 16 1
          132 225 135 391 360 319
          62 63 61 44 133 223
          224 361 358 317 63 17
          60 0 222 128 226 359
          314 315 64 20 66 9
          136 227 229 320 321 376
          65 64 67 52 137 228
          231 322 323 374 16 67
          19 8 230 141 135 324
          375 392 21 66 20 9
          139 227 142 393 376 321
          66 67 64 52 140 228
          229 377 374 323 67 16
          65 8 230 138 231 375
          324 325 68 22 69 58
          143 232 234 326 327 386
          20 69 21 9 233 146
          142 321 387 393 23 69
          22 59 145 232 147 291
          290 389 69 20 68 9
          233 144 234 387 321 328
          24 25 22 71 150 235
          148 236 154 394 22 25
          23 71 235 149 147 394
          154 289 70 26 71 28
          152 237 238 330 156 395
          27 71 26 29 153 237
          155 157 288 239 71 24
          70 22 236 151 238 394
          148 329 28 29 26 71
          158 239 156 395 288 237
          28 73 29 57 240 162
          158 382 287 286 72 30
          73 12 160 241 242 333
          334 383 31 73 30 12
          161 241 163 396 383 334
          73 28 72 56 240 159
          242 385 331 332 32 76
          74 8 244 243 164 336
          380 335 75 74 77 54
          165 245 247 337 338 378
          30 77 31 12 246 169
          163 334 379 396 76 32
          33 8 244 170 167 380
          336 397 76 77 74 54
          168 245 243 381 378 338
          77 30 75 12 246 166
          247 379 334 339 78 34
          80 6 171 248 250 340
          341 372 79 78 81 50
          172 249 252 342 343 370
          32 81 33 1 251 176
          170 344 371 398 35 80
          34 6 174 248 177 399
          372 341 80 81 78 50
          175 249 250 373 370 343
          81 32 79 1 251 173
          252 371 344 345 82 36
          83 48 178 253 255 346
          347 366 34 83 35 6
          254 181 177 341 367 399
          37 83 36 49 180 253
          182 271 270 369 83 34
          82 6 254 179 255 367
          341 348 38 39 36 85
          185 256 183 258 189 400
          36 39 37 85 256 184
          182 400 189 269 84 40
          85 42 186 257 259 350
          191 401 41 85 40 43
          188 257 190 192 268 260
          85 38 84 36 258 187
          259 400 183 349 42 43
          40 85 193 260 191 401
          268 257 42 87 43 47
          261 197 193 362 267 266
          86 17 87 0 195 262
          263 313 314 363 18 87
          17 0 196 262 131 390
          363 314 87 42 86 46
          261 194 263 365 311 312
          18 3 87 0 265 264
          196 390 93 363 83 7
          35 6 273 272 181 367
          103 399 35 7 80 6
          272 274 174 399 103 372
          80 51 81 50 276 275
          175 373 209 370 81 2
          33 1 278 277 176 371
          90 398 33 11 76 8
          280 279 167 397 113 380
          76 55 77 54 282 281
          168 381 215 378 77 13
          31 12 284 283 169 379
          118 396 31 13 73 12
          283 285 161 396 118 383
          69 10 21 9 293 292
          146 387 110 393 21 10
          66 9 292 294 139 393
          110 376 66 53 67 52
          296 295 140 377 212 374
          67 11 19 8 298 297
          141 375 113 392 19 2
          62 1 300 299 132 391
          90 360 62 45 63 44
          302 301 133 361 200 358
          63 3 18 0 303 265
          134 359 93 390 43 5
          85 4 307 308 268 364
          98 402 85 5 37 4
          308 306 269 402 98 368
          2 19 33 1 300 309
          277 90 391 398 33 19
          11 8 309 297 280 397
          392 113 29 15 71 14
          305 310 288 384 123 403
          71 15 23 14 310 304
          289 403 123 388 9 58
          68 69 124 326 328 387
          386 234 8 52 65 67
          108 322 325 375 374 231
          52 9 64 66 109 320
          323 377 376 229 12 54
          75 77 114 337 339 379
          378 247 54 8 74 76
          115 335 338 381 380 243
          56 12 72 73 120 333
          332 385 383 242 1 50
          79 81 104 342 345 371
          370 252 50 6 78 80
          105 340 343 373 372 250
          0 44 60 63 88 316
          315 359 358 226 44 1
          61 62 89 318 317 361
          360 224 46 0 86 87
          95 313 312 365 363 263
          6 48 82 83 99 346
          348 367 366 255 16 1
          32 33 319 344 355 404
          398 170 8 16 32 33
          324 355 336 397 404 170
          70 22 14 71 329 351
          356 238 394 403 28 70
          14 71 330 356 352 395
          238 403 84 36 4 85
          349 354 357 259 400 402
          42 84 4 85 350 357
          353 401 259 402 47 46
          42 87 203 311 362 267
          365 261 4 47 42 43
          201 362 353 364 266 193
          49 48 83 36 206 366
          270 369 347 253 4 49
          37 36 205 271 368 354
          369 182 57 56 28 73
          218 331 382 287 385 240
          14 57 28 29 216 382
          352 384 286 158 59 58
          69 22 221 386 290 389
          327 232 14 59 23 22
          220 291 388 351 389 147
          16 19 1 33 135 391
          319 404 309 398 19 16
          8 33 135 324 392 309
          404 397 23 22 71 14
          147 394 289 388 351 403
          28 29 71 14 158 288
          395 352 384 403 37 36
          85 4 182 400 269 368
          354 402 42 43 85 4
          193 268 401 353 364 402
        </DataArray>
        <DataArray type="Int32" Name="offsets" format="ascii" RangeMin="10" RangeMax="1380">
          10 20 30 40 50 60
          70 80 90 100 110 120
          130 140 150 160 170 180
          190 200 210 220 230 240
          250 260 270 280 290 300
          310 320 330 340 350 360
          370 380 390 400 410 420
          430 440 450 460 470 480
          490 500 510 520 530 540
          550 560 570 580 590 600
          610 620 630 640 650 660
          670 680 690 700 710 720
          730 740 750 760 770 780
          790 800 810 820 830 840
          850 860 870 880 890 900
          910 920 930 940 950 960
          970 980 990 1000 1010 1020
          1030 1040 1050 1060 1070 1080
          1090 1100 1110 1120 1130 1140
          1150 1160 1170 1180 1190 1200
          1210 1220 1230 1240 1250 1260
          1270 1280 1290 1300 1310 1320
          1330 1340 1350 1360 1370 1380
        </DataArray>
        <DataArray type="UInt8" Name="types" format="ascii" RangeMin="24" RangeMax="24">
          24 24 24 24 24 24
          24 24 24 24 24 24
          24 24 24 24 24 24
          24 24 24 24 24 24
          24 24 24 24 24 24
          24 24 24 24 24 24
          24 24 24 24 24 24
          24 24 24 24 24 24
          24 24 24 24 24 24
          24 24 24 24 24 24
          24 24 24 24 24 24
          24 24 24 24 24 24
          24 24 24 24 24 24
          24 24 24 24 24 24
          24 24 24 24 24 24
          24 24 24 24 24 24
          24 24 24 24 24 24
          24 24 24 24 24 24
          24 24 24 24 24 24
          24 24 24 24 24 24
          24 24 24 24 24 24
          24 24 24 24 24 24
          24 24 24 24 24 24
        </DataArray>
      </Cells>
    </Piece>
  </UnstructuredGrid>
</VTKFile>
