<?xml version="1.0"?>
<VTKFile type="UnstructuredGrid" version="0.1" byte_order="LittleEndian" header_type="UInt32" compressor="vtkZLibDataCompressor">
  <UnstructuredGrid>
    <Piece NumberOfPoints="2341" NumberOfCells="1239">
      <PointData Scalars="Contrainte:von Mises">
        <DataArray type="Float32" Name="Contrainte:von Mises" format="ascii" RangeMin="1.4419329166" RangeMax="49.570270538">
          37.969364166 38.254814148 40.761299133 5.1861567497 32.618579865 25.107704163
          24.452835083 35.414539337 4.7001786232 41.081485748 35.158538818 24.763492584
          5.8393530846 43.449455261 39.013751984 35.541748047 42.623344421 24.560869217
          36.214057922 6.0126404762 35.006942749 37.608104706 38.071117401 34.866661072
          31.712890625 31.918037415 37.958526611 34.289291382 34.802658081 38.110801697
          32.281482697 31.598384857 27.87654686 39.81413269 7.7664923668 23.338922501
          19.008995056 9.4252357483 27.527505875 24.653047562 27.15514946 7.7977342606
          21.996469498 23.062955856 8.5046710968 43.263652802 38.588443756 41.742275238
          40.745544434 41.511962891 39.993724823 41.491218567 37.975280762 26.727212906
          25.025262833 22.476068497 21.988889694 22.040025711 22.265176773 22.537376404
          24.785863876 5.0473213196 15.148556709 34.125701904 36.920089722 32.043964386
          15.741394997 4.6971840858 7.7108564377 22.103599548 40.957489014 37.234916687
          34.748901367 33.769012451 35.361053467 37.721355438 42.24156189 21.700307846
          7.7845835686 23.1054039 18.907468796 15.344898224 13.403180122 14.955075264
          18.801828384 20.826263428 34.911827087 23.713226318 18.769155502 15.053770065
          13.529911041 14.542410851 18.004558563 23.155858994 29.78603363 41.246669769
          37.507053375 34.44682312 33.659351349 34.821868896 36.407138824 40.632595062
          42.475658417 25.523384094 22.524219513 21.748031616 22.068510056 21.895263672
          22.766143799 25.331741333 27.351272583 38.904125214 39.975681305 39.990039825
          42.149936676 39.440944672 41.182846069 39.098739624 24.967578888 4.8694591522
          16.232601166 31.110931396 38.543346405 32.970935822 13.681846619 5.3408064842
          21.761116028 8.69901371 7.3139357567 19.994680405 43.211387634 42.100841522
          39.212341309 40.402229309 40.272357941 39.961273193 41.857311249 42.431739807
          14.921442032 11.258207321 12.432971001 15.420271873 40.959217072 38.775794983
          43.471656799 38.482967377 39.061016083 38.19834137 16.231851578 12.821710587
          13.035452843 16.286964417 41.642917633 43.784484863 40.508724213 40.324542999
          40.130241394 39.364040375 38.402187347 40.125411987 11.967625618 7.3448381424
          9.2074995041 11.806845665 12.503453255 7.8508257866 7.9162740707 10.507478714
          39.367473602 38.897510529 34.855541229 30.067562103 28.185678482 19.851751328
          19.551607132 25.470945358 21.751024246 24.386213303 25.147720337 16.940044403
          16.369720459 24.575315475 28.11309433 25.410964966 32.888652802 31.677268982
          31.333934784 30.956159592 29.932172775 29.700878143 26.172771454 25.364423752
          23.383371353 23.396778107 25.980325699 6.895087719 24.218662262 12.349390984
          20.56142807 27.064928055 21.377601624 8.6293497086 14.86342144 20.445800781
          26.616374969 29.024084091 28.794094086 28.386928558 24.416540146 4.8532509804
          21.406850815 27.38876915 31.251350403 25.419847488 30.544374466 23.237852097
          23.84664917 7.3905873299 13.829395294 18.037578583 27.687162399 22.653942108
          12.708745003 30.848619461 21.440208435 16.799930573 17.078422546 20.947259903
          29.74228096 36.431003571 15.47399044 16.445987701 8.7554531097 11.93936348
          7.8677873611 8.8594636917 10.44357872 34.33095932 36.614910126 25.267780304
          16.940771103 16.355758667 20.244586945 26.92395401 27.772203445 27.592502594
          27.458509445 23.646680832 22.102531433 26.348566055 28.691574097 24.955318451
          22.104089737 22.09649086 21.632640839 21.159778595 22.5542202 24.692865372
          21.743551254 6.0326461792 10.266776085 21.085208893 21.888368607 21.242805481
          11.93106842 8.5761890411 25.350294113 23.708086014 27.164415359 26.903190613
          22.656747818 29.030668259 6.6365938187 22.686225891 30.236831665 26.760274887
          25.756944656 34.237442017 23.519079208 21.66737175 5.797044754 12.45253849
          25.229892731 26.951181412 12.605039597 20.493741989 24.624437332 27.834856033
          29.181747437 21.884315491 18.733469009 24.760095596 22.251831055 24.397006989
          17.047101974 24.175685883 24.742399216 27.258361816 19.757411957 37.376598358
          32.5184021 31.601005554 30.599153519 31.817790985 27.364969254 37.517597198
          36.122612 33.639957428 28.821996689 24.675308228 14.708098412 18.516216278
          42.034210205 40.98651123 43.441612244 42.025337219 40.713382721 42.102039337
          33.312286377 23.527029037 17.726278305 22.937158585 27.564752579 38.047470093
          31.014053345 30.369810104 22.597990036 34.5741539 36.184871674 32.372104645
          30.118099213 21.790245056 11.230656624 18.266180038 33.92024231 18.661521912
          15.917040825 16.943834305 21.567054749 30.401853561 26.866006851 28.15117836
          42.258838654 40.41960144 42.33637619 42.783325195 41.9610672 42.247089386
          28.604755402 24.433744431 13.882656097 11.34758091 7.3681688309 13.603693962
          24.371126175 23.689760208 7.8976631165 5.9715976715 8.0893087387 23.894195557
          5.7031002045 27.301902771 34.462837219 28.940153122 33.222915649 32.554798126
          35.20980072 29.815696716 31.243833542 23.480434418 34.63551712 28.715911865
          33.726215363 18.429601669 16.371046066 21.449808121 36.872409821 32.06603241
          36.907054901 37.332782745 32.761039734 31.971569061 39.466461182 37.637924194
          3.1175980568 14.850581169 34.344741821 29.018728256 14.338376999 3.0111479759
          24.807552338 33.129207611 24.504558563 25.01385498 32.986602783 24.870456696
          2.8753097057 13.262827873 30.073625565 33.987304688 15.15380764 2.7607796192
          38.097438812 38.595561981 36.50233078 40.567317963 41.954471588 42.619556427
          40.998920441 40.716510773 40.471656799 35.498336792 33.372180939 24.782365799
          25.397209167 23.136978149 22.073112488 22.188114166 22.115627289 21.791063309
          23.166973114 25.163946152 5.128844738 7.6216282845 24.674800873 36.105823517
          35.420482635 24.355726242 5.6759819984 4.8168406487 3.8971471786 13.968630791
          29.083837509 41.017238617 39.639572144 36.802726746 35.008808136 34.103614807
          37.447471619 40.440013885 42.490345001 34.422958374 14.767093658 3.1645188332
          30.559059143 21.098804474 17.233356476 14.321476936 14.265390396 16.965072632
          21.016454697 27.282342911 35.572856903 40.657203674 29.483190536 21.147005081
          17.304021835 14.443714142 14.406498909 15.742337227 21.545740128 29.850254059
          30.62836647 31.686830521 42.433689117 39.578998566 36.279560089 34.32106781
          34.420284271 36.23575592 39.649341583 39.784111023 37.908348083 37.670139313
          25.233026505 23.627305984 21.587713242 21.853858948 22.155658722 21.960781097
          24.120830536 25.069080353 32.628795624 24.75476265 37.264961243 39.598323822
          40.852523804 41.467071533 40.971363068 41.409843445 39.917385101 37.825397491
          24.897737503 24.885915756 4.5513691902 9.2344760895 23.883522034 35.564048767
          36.327308655 23.12701416 7.6201272011 5.5789070129 34.84941864 15.586833
          3.22742939 4.1376829147 13.122076988 29.881202698 40.239059448 43.551216125
          41.474758148 40.035438538 41.532444 41.582111359 40.46295929 41.217308044
          42.20085907 42.770275116 40.636699677 24.287107468 13.182830811 11.842788696
          14.232008934 23.797458649 32.768306732 41.594558716 39.916282654 36.748935699
          42.257518768 41.155132294 40.442737579 36.449989319 36.385597229 38.554176331
          39.722743988 37.063961029 24.682762146 14.740498543 12.579133987 15.276637077
          24.260612488 41.023262024 43.077110291 41.188503265 40.641654968 41.378772736
          41.069835663 40.889453888 40.358917236 38.160831451 39.692623138 40.896968842
          20.339977264 9.5971870422 9.2955789566 11.066325188 20.027935028 33.855911255
          20.3627491 10.310822487 7.8142256737 9.2749519348 19.136926651 40.159854889
          38.705028534 37.358242035 32.315788269 34.450618744 34.566726685 36.278614044
          34.50749588 12.508452415 7.9310617447 19.726955414 32.602928162 22.606466293
          19.968914032 27.771724701 17.497785568 7.4806079865 12.78344059 25.39994812
          24.582300186 25.548158646 23.929258347 24.921743393 24.142835617 23.471073151
          25.556476593 11.679693222 6.235918045 21.694904327 15.176750183 20.569135666
          24.252759933 32.944255829 15.981104851 22.989171982 6.004696846 11.223877907
          35.490226746 36.890686035 30.059368134 31.227794647 19.826005936 24.950918198
          28.894018173 24.495786667 22.790376663 23.020359039 24.879308701 23.582220078
          27.444318771 21.116855621 16.491594315 25.585613251 28.383766174 27.900939941
          29.763002396 20.782613754 27.142597198 25.521495819 29.915363312 29.102712631
          26.237802505 29.012125015 28.001693726 24.007471085 23.870328903 27.958705902
          28.213502884 28.866224289 31.03086853 27.952939987 30.975418091 32.826370239
          28.822113037 32.328010559 31.701059341 32.623920441 31.987327576 25.306957245
          35.523117065 28.941303253 35.183185577 36.57542038 38.763126373 35.987812042
          34.977859497 35.171104431 34.990882874 34.015113831 32.817546844 33.385437012
          33.402004242 38.392440796 37.480068207 28.33385849 25.156970978 26.22584343
          24.978305817 23.396537781 22.405855179 21.727426529 21.179969788 21.135427475
          21.290319443 22.471593857 23.375083923 25.009386063 25.944484711 28.01225853
          25.166748047 24.148241043 23.047826767 24.662694931 35.388324738 27.538402557
          21.902721405 21.068740845 29.976852417 7.9063501358 12.499165535 1.6534491777
          2.127538681 3.9529550076 16.432374954 11.94976902 30.05140686 29.450260162
          28.326818466 19.214363098 24.984241486 2.407330513 5.6530604362 1.9386423826
          8.1523694992 21.556367874 13.481728554 29.218412399 33.216026306 37.406257629
          36.678874969 39.324920654 41.671142578 40.247589111 40.68572998 40.214912415
          38.334941864 39.195472717 33.363098145 36.027336121 14.429611206 5.9135870934
          24.349220276 16.618902206 23.763286591 24.361268997 12.164596558 17.51074028
          9.7051239014 13.256493568 21.507219315 29.534881592 30.155696869 28.874044418
          34.981071472 27.794612885 23.251802444 15.573964119 17.98141861 15.380264282
          19.193008423 19.976005554 20.077514648 20.847444534 19.5454216 19.601610184
          15.012862206 18.717594147 6.1348338127 2.2134637833 22.315158844 13.510255814
          33.4088974 33.021331787 37.053516388 36.956279755 36.488983154 38.211158752
          37.45872879 35.768817902 35.488414764 38.009117126 37.873916626 38.30941391
          36.135345459 35.647159576 21.960765839 7.4188299179 14.266513824 2.727285862
          2.2180538177 4.9440374374 11.762685776 21.1301651 30.224075317 30.160402298
          29.046384811 25.261878967 16.913087845 4.1988568306 2.9484872818 12.20423317
          23.471618652 31.135402679 29.471691132 32.081977844 24.969207764 27.70867157
          27.528022766 15.098684311 6.5778408051 16.335975647 22.213287354 22.51499176
          25.918439865 13.19685173 9.5590190887 8.6206827164 14.930462837 17.321149826
          21.366922379 19.32078743 18.856031418 18.399831772 19.594478607 21.342912674
          17.74987793 18.450471878 18.233699799 40.890083313 31.207965851 33.515617371
          26.164300919 22.803312302 15.957465172 18.305669785 12.200865746 13.147005081
          13.065814972 12.557734489 17.44849968 15.494051933 24.083820343 21.654973984
          36.050682068 27.227909088 34.957584381 40.023189545 37.813869476 34.265628815
          29.690246582 27.459699631 25.644828796 24.578241348 25.114236832 25.784950256
          26.434890747 29.032756805 33.406147003 37.239002228 25.638431549 18.819202423
          16.755498886 18.807468414 25.291572571 32.350170135 39.097801208 23.233459473
          20.399669647 22.930278778 19.555622101 24.64509964 16.026472092 11.948628426
          13.67784977 10.23677063 10.724870682 9.9456129074 9.7298870087 10.236579895
          10.71942234 18.205791473 14.992180824 23.798244476 21.287706375 14.194187164
          17.289205551 12.217545509 13.77115345 10.228280067 11.168340683 10.087530136
          9.6982040405 12.308639526 10.884542465 15.342773438 14.006181717 13.505269051
          10.341925621 8.6727705002 8.7975358963 11.295763016 9.3137464523 12.544728279
          16.940229416 31.972600937 40.819637299 36.799060822 41.157604218 40.866653442
          36.865085602 30.38693428 27.704500198 25.056734085 24.570022583 24.732572556
          24.907800674 27.299949646 27.839796066 35.655223846 39.723419189 31.910881042
          37.170711517 20.126607895 23.312772751 17.435758591 12.854859352 13.384515762
          13.500944138 12.374775887 18.101194382 15.313212395 26.946369171 23.493021011
          30.816940308 19.807844162 16.695373535 17.713220596 22.585212708 30.671218872
          30.06637764 27.862586975 21.405879974 34.831268311 25.453409195 27.48156929
          25.445545197 25.637483597 24.388721466 24.076335907 22.978830338 22.205768585
          21.891944885 21.200227737 21.461051941 22.48059845 23.283536911 24.987369537
          25.6914711 34.358913422 27.592664719 35.492046356 36.153053284 34.68825531
          33.880607605 32.216888428 32.10735321 33.047016144 32.432842255 33.753681183
          36.094852448 36.488208771 27.344747543 24.88180542 22.45375824 24.748701096
          27.039653778 24.663166046 28.360197067 34.660186768 35.811210632 25.193225861
          25.537027359 25.042194366 24.932249069 23.362957001 21.567657471 22.659294128
          21.699214935 21.538713455 21.67265892 22.027154922 21.942619324 21.749851227
          23.355136871 22.415313721 25.314535141 24.62033844 25.362356186 25.334386826
          23.417226791 25.11268425 21.393619537 22.14614296 21.227340698 20.977638245
          21.60880661 21.427692413 21.724355698 21.704658508 23.447498322 22.594762802
          24.972885132 23.336820602 21.558572769 22.13498497 21.447465897 21.846704483
          23.095542908 34.09859848 22.139209747 13.553965569 7.2117962837 1.8268595934
          2.7789149284 2.6825652122 9.4152536392 19.263362885 25.427177429 29.521396637
          29.367088318 24.932691574 20.22061348 10.59576416 3.2490346432 3.3012113571
          2.8504314423 24.008281708 33.386127472 8.6272153854 14.716769218 35.918785095
          36.260662079 35.310256958 35.362052917 36.289611816 35.574008942 35.959468842
          35.548030853 34.85848999 35.587844849 36.58769989 37.241260529 34.131244659
          12.587081909 5.5322122574 15.01922226 22.746700287 27.003328323 22.819740295
          17.259204865 6.7499790192 15.756596565 23.853120804 24.807792664 28.750806808
          22.9270401 26.240247726 26.132720947 15.743570328 16.8841362 17.869630814
          18.44377327 18.582626343 18.897779465 19.661270142 17.688179016 17.182750702
          17.312055588 17.858636856 1.7054853439 7.1810750961 13.346768379 22.155729294
          31.346206665 33.044746399 36.923854828 39.108386993 40.548774719 39.232559204
          41.29278183 43.264625549 43.551086426 42.001529694 35.193470001 33.096282959
          30.808403015 6.1385803223 1.4419329166 20.029111862 12.750884056 2.0621685982
          11.148918152 3.4715127945 26.23825264 19.931343079 29.947912216 24.180936813
          29.29491806 12.037825584 20.929937363 4.0636482239 2.426281929 13.385644913
          26.660955429 29.760940552 26.612110138 39.120628357 28.246171951 29.952281952
          34.822532654 22.515523911 12.03131485 6.8123764992 16.888271332 30.26199913
          26.525360107 17.838905334 23.658454895 5.1944055557 16.650644302 19.265823364
          18.265245438 19.790792465 19.027393341 20.280181885 21.311656952 19.03524971
          14.832604408 13.333359718 20.048221588 21.225927353 32.028621674 17.646678925
          8.5120534897 14.162543297 11.839093208 7.3537931442 18.102579117 28.568475723
          19.851272583 24.280954361 26.47803688 24.495336533 25.305343628 25.000108719
          24.283399582 25.246013641 23.557806015 7.1062755585 10.570867538 15.452549934
          21.36671257 22.276613235 33.090263367 23.281843185 18.80112648 12.735365868
          7.5046281815 37.590873718 33.435470581 31.745296478 32.944236755 32.488079071
          35.110275269 33.493843079 30.768117905 25.916501999 31.92052269 23.836935043
          19.890001297 23.779157639 23.534656525 23.358390808 25.141656876 27.517253876
          22.86690712 19.055086136 20.083049774 26.21903038 28.124649048 24.97605896
          31.689443588 37.835460663 28.054853439 30.115219116 30.192121506 27.647125244
          25.403013229 27.092628479 28.509147644 26.011062622 25.506822586 24.925136566
          28.302125931 26.986728668 28.523838043 28.410556793 30.113946915 30.955972672
          32.618377686 28.699140549 31.35433197 31.738006592 33.277057648 32.762645721
          32.557888031 37.369064331 38.32983017 42.613204956 42.883125305 45.735061646
          41.817695618 46.37771225 47.658473969 48.212532043 46.844364166 49.570270538
          40.786808014 40.319747925 36.054542542 32.869842529 20.340085983 16.91742897
          14.189412117 13.120016098 17.739936829 21.682155609 31.460702896 44.082530975
          32.646793365 34.484916687 32.075954437 29.310503006 18.680599213 14.794168472
          13.449362755 21.485834122 28.494934082 25.69552803 25.276071548 21.615098953
          20.080200195 41.602508545 42.306732178 43.845359802 46.271495819 44.619895935
          44.579563141 44.676109314 45.685520172 44.815757751 43.206031799 44.591136932
          43.534500122 46.860561371 45.827739716 46.531986237 44.320953369 44.591770172
          44.738430023 42.801937103 40.880626678 42.315856934 43.008583069 41.230869293
          41.89522934 41.771751404 41.05493927 42.294929504 41.140918732 41.501087189
          19.604948044 19.301952362 16.04750061 19.526130676 20.231319427 20.820354462
          18.099399567 18.725177765 15.32023716 47.242740631 39.732769012 39.780838013
          35.794395447 30.035327911 21.187913895 17.615619659 14.005555153 13.069795609
          17.834947586 21.310777664 33.563690186 39.116363525 39.105537415 42.226783752
          42.287261963 46.249298096 49.278961182 47.172447205 47.42691803 45.844291687
          43.641513824 28.062984467 20.436479568 17.59705162 13.483048439 23.098405838
          31.744796753 35.222442627 30.293609619 44.971733093 31.353059769 25.433265686
          23.30255127 24.832284927 27.185781479 27.783031464 27.638946533 34.01159668
          35.257553101 38.306587219 40.127140045 45.635253906 41.294811249 46.793487549
          46.746803284 44.227924347 44.082458496 46.109447479 39.394695282 34.118320465
          32.815292358 28.226940155 15.558909416 11.703111649 9.8996534348 9.9934072495
          13.042966843 16.195690155 29.019845963 33.167812347 45.705402374 30.418281555
          33.481449127 27.890630722 14.733567238 12.971790314 10.939796448 19.498622894
          26.731403351 23.583677292 24.881372452 22.137178421 19.532342911 17.684684753
          17.697191238 16.605300903 15.425004959 17.268695831 18.089691162 17.54552269
          14.549268723 14.512331009 40.073589325 36.640197754 36.338829041 29.506475449
          28.13833046 14.176114082 11.984308243 8.5284109116 7.9487123489 12.520461082
          16.668680191 27.200668335 33.281352997 33.89995575 36.045898438 45.00069046
          42.900501251 46.467453003 44.160839081 44.717582703 43.511241913 43.465930939
          27.207382202 17.276184082 9.9306602478 13.175567627 18.358545303 25.455955505
          29.533231735 44.052513123 29.006925583 31.43047142 24.853225708 22.793672562
          20.961399078 21.837453842 24.149694443 42.861198425 43.494667053 45.250823975
          44.769599915 42.893054962 42.447189331 44.286708832 46.639358521 46.263237
          44.103542328 44.628070831 47.468517303 45.158729553 43.978656769 46.244686127
          44.649051666 46.676063538 46.706962585 45.744140625 40.998897552 41.576084137
          41.560787201 44.164104462 41.480857849 41.301891327 41.876636505 41.745128632
          41.127624512 41.425998688 36.447490692 12.520924568 18.834873199 32.725059509
          30.380086899 22.318244934 28.296115875 17.939620972 13.229545593 24.904035568
          28.18699646 25.502681732 25.028038025 28.403053284 11.670213699 22.644529343
          29.426109314 23.773504257 21.910320282 11.245299339 33.679718018 29.644172668
          27.950931549 29.302980423 32.180732727 12.315263748 24.426027298 28.169736862
          25.950031281 27.818380356 24.541227341 26.616689682 26.138422012 25.599752426
          25.25860405 15.607132912 6.7515749931 6.9284873009 24.069580078 32.067687988
          32.621551514 24.20662117 19.30616951 14.232294083 34.741413116 24.43529129
          30.526247025 24.271018982 28.289943695 31.537672043 31.499139786 30.029468536
          28.085506439 31.160469055 25.655887604 31.791612625 29.119653702 22.741168976
          29.384824753 22.908899307 31.999425888 29.175130844 31.037883759 32.567604065
          29.58041954 26.080644608 32.041030884 30.614841461 31.353162766 31.317100525
          34.657680511 33.419368744 30.587337494 34.099380493 33.731338501 33.835861206
          34.122364044 28.277706146 31.431415558 30.651468277 27.257118225 24.868989944
          25.212835312 20.002727509 22.708108902 22.12352562 16.581329346 20.609811783
          20.291713715 14.41753006 24.062931061 23.094631195 19.50705719 30.390209198
          30.710855484 27.365375519 26.208831787 22.006168365 20.658437729 20.927949905
          20.445148468 21.375171661 23.750831604 26.103820801 25.797864914 24.468143463
          18.613742828 16.165409088 16.387487411 18.221744537 24.495458603 25.307792664
          24.014379501 21.74877739 20.976165771 20.480215073 21.717340469 24.980148315
          19.030406952 8.3674812317 13.635247231 18.194643021 24.40716362 18.178979874
          23.116508484 26.411336899 22.267457962 23.130186081 25.634622574 24.215608597
          21.809034348 26.003099442 23.085439682 18.82758522 26.156248093 18.954137802
          13.294418335 20.280139923 6.7109594345 21.739227295 23.172584534 30.639324188
          22.983005524 32.02281189 32.652202606 32.808074951 28.958387375 28.601552963
          25.091154099 23.430055618 25.359840393 25.909685135 20.515897751 23.877178192
          26.263381958 21.614051819 24.544624329 28.225646973 23.349077225 34.197414398
          33.248336792 27.617839813 23.172454834 25.713535309 19.016822815 26.78024292
          26.911424637 26.314819336 26.619638443 13.20088768 27.014169693 17.327508926
          26.84022522 22.311306 20.375843048 20.719373703 22.641424179 27.829910278
          26.970731735 20.481889725 24.785263062 20.654571533 21.580972672 25.518198013
          20.681680679 20.533184052 26.45450592 19.193548203 22.799207687 25.901622772
          22.549665451 19.892145157 26.522102356 27.904586792 21.138820648 27.126062393
          24.380933762 24.818069458 24.738176346 24.305030823 21.815591812 26.912555695
          27.511268616 28.484224319 32.863880157 29.359149933 26.018968582 23.987522125
          21.641901016 20.187513351 19.577684402 20.000007629 17.177534103 18.087936401
          20.014976501 17.979068756 22.968214035 23.770294189 19.542524338 29.857133865
          33.726154327 27.384447098 32.237133026 23.8697052 13.051189423 17.968418121
          24.726512909 24.756217957 24.664514542 25.574327469 18.263662338 8.2689800262
          26.440961838 20.728754044 17.409757614 16.30982399 18.503887177 27.103578568
          19.245073318 26.001379013 26.862939835 27.440481186 25.494241714 24.331644058
          24.773263931 19.021034241 24.73575592 24.440740585 26.411119461 22.54076004
          22.842235565 18.772521973 23.007734299 19.856531143 17.658079147 24.207382202
          24.22864151 19.400968552 21.537052155 23.255779266 18.225347519 29.310560226
          27.355453491 23.834856033 25.215076447 19.978235245 24.64622879 18.714185715
          18.156349182 21.194885254 24.570512772 19.246362686 22.070934296 20.080938339
          25.402341843 23.095968246 15.87101841 12.774624825 11.887144089 14.834195137
          20.81385994 31.294237137 37.235610962 34.110076904 27.869140625 31.45643425
          27.002414703 19.777893066 20.823179245 14.761904716 17.069505692 17.163246155
          9.639257431 14.016379356 13.189578056 7.5502767563 22.163173676 19.869884491
          14.588629723 32.428382874 27.779712677 25.698673248 33.959026337 20.532356262
          14.961518288 12.089797974 12.504038811 17.030790329 23.325912476 25.994190216
          32.648700714 21.23069191 12.571228981 10.308074951 12.936043739 19.693130493
          30.408252716 29.969739914 21.199264526 16.187429428 12.102597237 12.13568306
          14.470787048 14.047218323 17.12707901 21.010477066 18.349899292 12.748303413
          11.845664024 12.806360245 17.109226227 27.668859482 27.794628143 33.085308075
          32.400794983 26.496332169 30.372581482 29.69493103 16.335706711 18.258678436
          14.907781601 17.350286484 17.124336243 9.843328476 13.950156212 13.452314377
          7.328813076 18.114507675 15.414901733 12.262891769 30.823812485 26.792850494
          28.230575562 17.816587448 25.356193542 23.240558624 10.977995872 10.208256721
          9.4698886871 23.63403511 21.313343048 23.039022446 26.692918777 13.107539177
          25.003128052 25.855571747 25.380918503 23.647136688 21.049322128 20.847444534
          22.194227219 21.072231293 23.369407654 23.642957687 24.52989769 29.21991539
          28.315372467 29.840190887 24.544929504 21.695148468 24.05122757 18.592885971
          19.166723251 19.443376541 13.74711132 16.578308105 16.176399231 11.917646408
          22.312507629 20.716014862 19.35231781 29.607887268 28.023614883 23.951595306
          24.263122559 22.295703888 20.5534935 21.461507797 24.217142105 25.7415905
          26.48156929 20.875375748 15.715301514 13.361743927 16.410554886 25.951072693
          19.955207825 21.027130127 21.711643219 25.5597229 23.195590973 19.654335022
          22.634714127 24.792995453 21.518865585 23.777427673 17.69635582 24.077907562
          13.477835655 22.488157272 26.149301529 19.381158829 24.260198593 23.875108719
          21.844087601 20.968891144 25.845464706 23.462421417 17.215520859 24.692399979
          23.933320999 13.994493484 23.096635818 18.761642456 14.887578011 9.5881500244
          31.99190712 16.941320419 30.325338364 26.792142868 32.448383331 21.293516159
          18.463443756 22.525026321 19.145511627 17.384355545 20.049196243 18.556678772
          16.749727249 18.60247612 24.804250717 18.156417847 20.963476181 33.568576813
          27.019584656 28.279190063 14.350870132 19.542362213 17.567054749 25.015104294
          27.490003586 26.651144028 25.713811874 18.736305237 24.303159714 24.573598862
          18.992164612 18.077091217 23.474628448 19.898687363 20.164701462 21.345228195
          26.637559891 16.713533401 23.627277374 23.88530159 20.691831589 20.533443451
          23.929597855 18.088209152 19.914518356 22.86781311 17.89012146 20.83086586
          23.639444351 19.907957077 19.529438019 25.061201096 22.967559814 26.34727478
          24.655426025 28.499319077 23.7584095 21.044368744 17.321464539 21.487737656
          22.260356903 29.979341507 22.600866318 26.005619049 25.40587616 32.533603668
          29.065265656 32.698848724 25.830905914 21.758098602 26.166252136 25.589487076
          19.508396149 23.587938309 23.348377228 21.733436584 22.016506195 27.671430588
          24.844268799 23.45368576 32.465454102 26.01089859 33.65688324 30.093397141
          12.342107773 18.032888412 25.155622482 26.162790298 25.875341415 25.572145462
          24.45177269 24.497629166 13.819129944 17.152099609 12.091228485 28.361347198
          22.659128189 19.924131393 22.281826019 20.470245361 26.30450058 19.792291641
          27.445022583 22.383005142 17.989187241 26.056159973 25.990831375 27.240356445
          27.631381989 18.147481918 25.504636765 26.645927429 20.284418106 31.19626236
          25.798698425 28.023290634 24.899082184 20.303342819 26.08351326 26.696231842
          20.653394699 26.795454025 26.709817886 21.090513229 25.767534256 22.541347504
          20.976984024 27.150659561 26.122535706 24.141836166 27.907403946 20.25573349
          23.239601135 27.485671997 21.835540771 19.42930603 19.875869751 23.286050797
          26.256719589 21.596242905 26.557569504 32.575946808 13.362265587 25.986291885
          23.652667999 28.273658752 27.762815475 26.294338226 21.890869141 10.321902275
          23.570636749 25.686201096 25.225193024 30.568731308 26.92665863 35.058998108
          30.047943115 28.165390015 32.24521637 26.345275879 25.647937775 22.841655731
          29.989425659 31.678718567 29.69168663 26.643968582 28.859071732 28.812452316
          29.065643311 26.086227417 32.396965027 29.19288063 30.17965889 29.984481812
          31.115488052 32.088386536 31.518369675 33.595180511 34.450424194 28.752511978
          33.73840332 31.893796921 26.692302704 32.601924896 34.633968353 33.772743225
          29.920381546 22.943798065 22.748540878 30.881002426 34.317745209 34.768253326
          31.959209442 32.97644043 38.149772644 38.299308777 37.913669586 37.104976654
          35.464824677 32.577060699 35.972267151 37.635223389 40.69272995 38.895271301
          33.9650383 35.289791107 35.605323792 32.510864258 33.733139038 38.732589722
          37.949741364 36.970684052 37.850547791 37.968826294 37.026371002 35.175998688
          37.722003937 35.855045319 37.39176178 35.547370911 37.368556976 38.608520508
          38.230243683 36.045070648 38.399085999 39.834857941 40.080638885 39.045951843
          39.361431122 39.882484436 21.609369278 22.304527283 12.0082407 10.928749084
          20.816242218 13.112160683 9.0218658447 8.5784387589 11.548082352 9.687335968
          10.397218704 9.849272728 9.0938386917 10.149835587 23.018613815 12.683250427
          10.563733101 10.535964012 29.527147293 22.096340179 24.401477814 23.456956863
          31.341489792 29.078878403 23.836751938 23.490526199 21.843006134 24.324487686
          26.500875473 21.924533844 28.046590805 21.841993332 18.631799698 18.707050323
          18.957180023 16.733671188 16.553308487 6.1598553658 17.031435013 17.192810059
          6.0565271378 3.8695585728 5.4359736443 5.8389267921 5.5728497505 5.120593071
          4.0717515945 7.0592103004 4.50471735 9.0155439377 3.8216085434 6.9160342216
          9.0433034897 22.060621262 24.61240387 20.973026276 21.1009655 20.187643051
          25.827558517 20.488115311 18.871372223 17.944583893 32.682945251 34.126758575
          36.378314972 34.618690491 36.482124329 32.73746109 34.458156586 37.611488342
          36.814888 37.894447327 36.385913849 31.953855515 34.23695755 38.69878006
          38.983825684 36.652297974 40.572914124 37.055213928 38.07875824 38.79201889
          35.928695679 35.359157562 35.297782898 37.764347076 35.424537659 37.456855774
          36.906562805 36.45721817 39.341651917 38.313941956 35.64938736 36.268760681
          37.410297394 39.07868576 39.958324432 39.546543121 39.719146729 39.78993988
          40.207229614 39.936183929 39.69096756 30.738796234 28.859977722 29.614046097
          16.934522629 27.12669754 26.294780731 25.447675705 23.380622864 29.070861816
          26.689819336 21.472019196 10.961596489 29.364831924 26.062297821 29.675584793
          29.905881882 24.972150803 30.132333755 32.141613007 17.663604736 33.518115997
          35.10294342 33.01644516 34.784210205 37.410926819 32.545890808 34.993923187
          35.531288147 37.005474091 28.859119415 23.941390991 17.752822876 11.366402626
          8.2117652893 17.582193375 28.828639984 22.441902161 15.810412407 13.723651886
          10.750715256 19.907806396 13.080767632 20.953128815 23.213569641 18.303340912
          25.00466156 22.466901779 13.794194221 18.105558395 12.525738716 18.201210022
          26.931409836 28.60021019 25.126161575 29.099393845 26.104997635 26.664384842
          26.328374863 17.052679062 22.762758255 21.436950684 13.888165474 5.7592430115
          5.0210857391 4.8028211594 14.642869949 17.921852112 22.444734573 10.877515793
          7.2853927612 10.795679092 13.155765533 22.321302414 27.569616318 19.592250824
          19.322378159 8.0683107376 7.2402009964 8.1286621094 18.754678726 21.835420609
          25.574256897 12.042717934 25.705968857 14.886855125 9.5462064743 24.68778038
          28.596225739 28.428899765 17.33836937 18.720863342 18.390340805 15.589378357
          22.264471054 20.194271088 19.04784584 24.185495377 16.176797867 15.481506348
          22.81230545 14.202237129 17.736341476 18.577884674 26.375230789 16.155256271
          25.88193512 19.762048721 31.060709 22.852405548 25.358001709 27.052446365
          28.315132141 20.518342972 25.197101593 25.992105484 23.93629837 31.635652542
          29.560462952 29.337865829 35.610416412 34.929862976 32.805625916 30.55292511
          27.107236862 28.850046158 31.138244629 30.441543579 31.52022171 34.120098114
          35.156433105 34.015136719 36.672782898 36.584358215 36.380615234 8.8843898773
          31.307518005 32.63318634 30.665267944 29.207794189 31.07233429 33.664543152
          7.3664474487 6.5309181213 29.147268295 33.601863861 30.54765892 28.819950104
          28.462739944 34.989273071 27.495027542 24.420740128 30.985780716 33.937854767
          35.183086395 35.600948334 27.635030746 18.099145889 24.025686264 35.078784943
          35.336597443
        </DataArray>
      </PointData>
      <CellData>
      </CellData>
      <Points>
        <DataArray type="Float32" Name="Points" NumberOfComponents="3" format="ascii" RangeMin="1.5700924587e-15" RangeMax="32.155870382">
          -25 3 20 -25 -3 20
          -19.803848267 -3 20 -12.5 -7.2168784142 20
          -5.1961526871 -3 20 0 -3 20
          0 3 20 -5.1961526871 3 20
          -12.5 7.2168784142 20 -19.803848267 3 20
          -5.1961526871 -3 -1.7763568394e-15 0 -3 -1.7763568394e-15
          -12.5 -7.2168784142 -2.712691835e-15 -19.803848267 -3 -1.7763568394e-15
          -25 -3 -1.7763568394e-15 -25 3 -4.4408918338e-16
          -19.803848267 3 -4.4408918338e-16 0 3 -4.4408918338e-16
          -5.1961526871 3 -4.4408918338e-16 -12.5 7.2168784142 4.9224589164e-16
          -7.0000004768 1.4481781721 16 -12.495841026 4.6212034225 16
          -12.495841026 4.6212034225 4 -7.0000004768 1.4481781721 4
          -18 1.4433758259 4 -18 -1.4433758259 4
          -12.495841026 -4.6212034225 4 -7.0000004768 -1.4481781721 4
          -7.0000004768 -1.4481781721 16 -12.495841026 -4.6212034225 16
          -18 -1.4433758259 16 -18 1.4433758259 16
          -25 -5.5511151231e-15 20 -22.401924133 -3 20
          -14.934616089 -5.8112521172 20 -17.36923027 -4.405626297 20
          -7.6307682991 -4.405626297 20 -10.065383911 -5.8112521172 20
          -2.5980763435 -3 20 0 -5.5511151231e-15 20
          -2.5980763435 3 20 -10.065383911 5.8112521172 20
          -7.6307682991 4.405626297 20 -17.36923027 4.405626297 20
          -14.934616089 5.8112521172 20 -22.401924133 3 20
          -5.1961526871 -3 2.5 -5.1961526871 -3 5
          -5.1961526871 -3 7.5 -5.1961526871 -3 10
          -5.1961526871 -3 12.5 -5.1961526871 -3 15
          -5.1961526871 -3 17.5 -2.5980763435 -3 -1.7763568394e-15
          0 -3 17.5 0 -3 15
          0 -3 12.5 0 -3 10
          0 -3 7.5 0 -3 5
          0 -3 2.5 -12.5 -7.2168784142 17.5
          -12.5 -7.2168784142 15 -12.5 -7.2168784142 12.5
          -12.5 -7.2168784142 10 -12.5 -7.2168784142 7.5
          -12.5 -7.2168784142 5 -12.5 -7.2168784142 2.5
          -10.065383911 -5.8112521172 -2.400580311e-15 -7.6307682991 -4.405626297 -2.0884685752e-15
          -19.803848267 -3 17.5 -19.803848267 -3 15
          -19.803848267 -3 12.5 -19.803848267 -3 10
          -19.803848267 -3 7.5 -19.803848267 -3 5
          -19.803848267 -3 2.5 -17.36923027 -4.405626297 -2.0884685752e-15
          -14.934616089 -5.8112521172 -2.400580311e-15 -25 -3 17.5
          -25 -3 15 -25 -3 12.5
          -25 -3 10 -25 -3 7.5
          -25 -3 5 -25 -3 2.5
          -22.401924133 -3 -1.7763568394e-15 -25 3 2.5
          -25 3 5 -25 3 7.5
          -25 3 10 -25 3 12.5
          -25 3 15 -25 3 17.5
          -25 -1.1102230246e-15 -1.1102230246e-15 -19.803848267 3 2.5
          -19.803848267 3 5 -19.803848267 3 7.5
          -19.803848267 3 10 -19.803848267 3 12.5
          -19.803848267 3 15 -19.803848267 3 17.5
          -22.401924133 3 -4.4408918338e-16 0 3 2.5
          0 3 5 0 3 7.5
          0 3 10 0 3 12.5
          0 3 15 0 3 17.5
          -2.5980763435 3 -4.4408918338e-16 -5.1961526871 3 17.5
          -5.1961526871 3 15 -5.1961526871 3 12.5
          -5.1961526871 3 10 -5.1961526871 3 7.5
          -5.1961526871 3 5 -5.1961526871 3 2.5
          0 -1.1102230246e-15 -1.1102230246e-15 -12.5 7.2168784142 17.5
          -12.5 7.2168784142 15 -12.5 7.2168784142 12.5
          -12.5 7.2168784142 10 -12.5 7.2168784142 7.5
          -12.5 7.2168784142 5 -12.5 7.2168784142 2.5
          -17.36923027 4.405626297 -1.3197750053e-16 -14.934616089 5.8112521172 1.8013420879e-16
          -10.065383911 5.8112521172 1.8013420879e-16 -7.6307682991 4.405626297 -1.3197750053e-16
          -8.8319473267 2.5058531761 16 -10.663894653 3.5635282993 16
          -12.495841026 4.6212034225 6.4000005722 -12.495841026 4.6212034225 8.8000001907
          -12.495841026 4.6212034225 11.199999809 -12.495841026 4.6212034225 13.600000381
          -10.663894653 3.5635282993 4 -8.8319473267 2.5058531761 4
          -7.0000004768 1.4481781721 6.4000005722 -7.0000004768 1.4481781721 8.8000001907
          -7.0000004768 1.4481781721 11.199999809 -7.0000004768 1.4481781721 13.600000381
          -14.330559731 -3.5619277954 4 -16.165279388 -2.502651453 4
          -8.8319473267 -2.5058531761 4 -10.663894653 -3.5635282993 4
          -16.165279388 2.502651453 4 -14.330559731 3.5619277954 4
          -7.0000004768 -1.4481781721 13.600000381 -7.0000004768 -1.4481781721 11.199999809
          -7.0000004768 -1.4481781721 8.8000001907 -7.0000004768 -1.4481781721 6.4000005722
          -10.663894653 -3.5635282993 16 -8.8319473267 -2.5058531761 16
          -12.495841026 -4.6212034225 6.4000005722 -12.495841026 -4.6212034225 8.8000001907
          -12.495841026 -4.6212034225 11.199999809 -12.495841026 -4.6212034225 13.600000381
          -16.165279388 -2.502651453 16 -14.330559731 -3.5619277954 16
          -18 -1.4433758259 6.4000005722 -18 -1.4433758259 8.8000001907
          -18 -1.4433758259 11.199999809 -18 -1.4433758259 13.600000381
          -18 1.4433758259 13.600000381 -18 1.4433758259 11.199999809
          -18 1.4433758259 8.8000001907 -18 1.4433758259 6.4000005722
          -14.330559731 3.5619277954 16 -16.165279388 2.502651453 16
          -21.976804733 -0.26981812716 20 -19.11192894 -0.15221330523 20
          -16.380096436 -1.6703555584 20 -14.188436508 -3.9013779163 20
          -11.544159889 -4.0108499527 20 -8.6592855453 -2.1787199974 20
          -4.9101939201 -0.23321902752 20 -2.1603348255 -0.44736924767 20
          -7.4390034676 0.71344506741 20 -11.350102425 4.2971959114 20
          -13.223232269 4.415807724 20 -9.080827713 2.7609949112 20
          -17.150968552 1.4729111195 20 -14.987808228 3.003077507 20
          -14.617259979 0.4929664135 20 -12.515352249 -1.4062325954 20
          -10.06323719 0.22624702752 20 -12.203145981 1.7891736031 20
          -2.827419281 -3 17.140481949 -2.8243062496 -3 2.9660177231
          -2.6290931702 -3 5.8604946136 -2.9961087704 -3 8.1373786926
          -2.612496376 -3 10.114735603 -2.583773613 -3 12.440218925
          -2.2602818012 -3 14.536699295 -10.230026245 -5.9063081741 17.75406456
          -7.4682183266 -4.3117780685 17.219955444 -10.099479675 -5.8309373856 15.14197731
          -9.8446836472 -5.6838312149 12.932658195 -10.310091019 -5.9525341988 10.412062645
          -10.037293434 -5.7950348854 7.7119159698 -10.205091476 -5.8919119835 2.7987904549
          -9.6037826538 -5.5447463989 5.4419283867 -7.6761064529 -4.431801796 1.8747217655
          -7.3468894958 -4.2417287827 4.6151065826 -7.5012722015 -4.3308610916 7.5341968536
          -7.7053017616 -4.4486579895 10.073186874 -7.6392335892 -4.4105138779 12.5319767
          -7.8893537521 -4.5549206734 14.70044899 -14.299015045 -6.1782169342 17.481807709
          -17.0051651 -4.6158208847 17.619245529 -17.678962708 -4.2268033028 14.719944
          -17.950901031 -4.0697994232 11.922259331 -17.361711502 -4.4099678993 9.6688280106
          -18.044374466 -4.0158324242 4.9926242828 -16.772283554 -4.7502741814 7.2860517502
          -17.481098175 -4.3410396576 2.4235191345 -14.756986618 -5.9138059616 2.251115799
          -15.009119034 -5.7682380676 14.898251534 -15.630628586 -5.4094085693 12.254451752
          -14.652730942 -5.9739980698 9.6189823151 -14.462698936 -6.0837135315 6.836098671
          -15.578112602 -5.4397296906 4.6860222816 -22.624635696 -3 16.996006012
          -22.420158386 -3 13.987215042 -22.403104782 -3 11.330423355
          -22.40202713 -3 8.7906341553 -22.402582169 -3 6.3101139069
          -22.415456772 -3 3.924125433 -22.821605682 -3 1.8253695965
          -25 0.26428213716 17.136861801 -25 0.67785149813 2.4738504887
          -25 0.0026604323648 7.4640426636 -25 0.0454531461 4.9222698212
          -25 -0.0007137550856 9.9626150131 -25 -0.016766929999 12.395936012
          -25 -0.3875849247 14.523201942 -22.147712708 3 17.325918198
          -22.062850952 3 2.2125003338 -22.39900589 3 5.1521482468
          -22.401649475 3 8.3826150894 -22.401878357 3 11.057281494
          -22.401292801 3 13.426616669 -22.351293564 3 15.250844955
          -2.3437654972 3 17.326841354 -2.0762701035 3 2.6532661915
          -2.7950618267 3 5.4843997955 -2.6144626141 3 8.4877548218
          -2.5991625786 3 11.08971405 -2.5975103378 3 13.436706543
          -2.5472960472 3 15.254516602 0 -0.67785149813 17.52614975
          0 -0.0026953634806 12.528776169 0 -0.045431800187 15.076591492
          0 -0.00015329036978 10.009468079 0 -8.5994161054e-06 7.5030679703
          0 -4.8028198307e-07 5.0009703636 0 -2.6699598976e-08 2.500269413
          -17.098297119 4.5620508194 18.072946548 -14.514669418 6.0537090302 18.116624832
          -15.133844376 5.6962275505 15.682952881 -14.731149673 5.9287238121 12.67784977
          -15.274776459 5.6148605347 10.093069077 -14.964255333 5.7941398621 7.7004003525
          -14.795978546 5.8912944794 4.7642316818 -15.012606621 5.7662248611 1.9331978559
          -17.535709381 4.309510231 2.9367966652 -17.316106796 4.4362978935 5.9696846008
          -17.453617096 4.3569059372 8.6778287888 -17.393405914 4.3916692734 11.307260513
          -17.315977097 4.436372757 13.779076576 -17.760293961 4.1798458099 16.008377075
          -10.370539665 5.9874339104 17.917314529 -7.6345691681 4.4078207016 17.483045578
          -7.230175972 4.174343586 14.644029617 -7.7366976738 4.4667844772 12.42602253
          -8.1993951797 4.7339224815 10.045269966 -7.0968255997 4.0973539352 7.6739082336
          -8.0042629242 4.621263504 5.4588661194 -7.7629356384 4.4819331169 2.6114258766
          -10.479674339 6.0504426956 2.1049687862 -9.7782001495 5.6454463005 15.269823074
          -10.388688087 5.9979124069 12.430354118 -10.280175209 5.9352617264 10.063688278
          -10.360468864 5.9816193581 4.7810673714 -9.8804798126 5.7044978142 7.7404098511
          -16.185337067 2.9557311535 -4.5391886838e-16 -17.484306335 0.81052476168 -9.3025044031e-16
          -20.078371048 -0.20248180628 -1.1551830041e-15 -13.350343704 3.7168262005 -2.8492181936e-16
          -10.621507645 3.9091110229 -2.4222598546e-16 -8.0803632736 1.7269867659 -7.2675485108e-16
          -4.730325222 0.13844364882 -1.079482399e-15 -2.1030812263 0.44722381234 -1.0109193171e-15
          -11.592556 -4.2063035965 -2.0442100449e-15 -9.2108364105 -2.8101036549 -1.7341914334e-15
          -7.2675561905 -0.910110116 -1.3123081452e-15 -16.350633621 -2.0136668682 -1.5573468359e-15
          -13.728879929 -4.007024765 -1.9999612555e-15 -22.836019516 -0.4428626895 -1.2085583617e-15
          -14.528497696 0.74455678463 -9.4489818107e-16 -11.551117897 1.3852680922 -8.0263174486e-16
          -9.8372373581 -0.41897553205 -1.2032542414e-15 -12.592176437 -1.5305774212 -1.4500795364e-15
          -8.9571008682 2.5781109333 13.516504288 -11.108449936 3.8201925755 13.575649261
          -10.732934952 3.6033892632 6.2227697372 -10.717870712 3.5946917534 11.11214447
          -10.179909706 3.2840993404 8.6730451584 -8.6002101898 2.3720602989 6.6292672157
          -8.4057884216 2.2598106861 9.1682777405 -9.0194683075 2.6141188145 10.91940403
          -15.335459709 -0.47749254107 4 -13.023381233 -2.3889741898 4
          -9.5575885773 -0.23137278855 4 -12.175621033 -0.62264657021 4
          -11.654912949 1.9083274603 4 -13.912845612 1.2922352552 4
          -10.544013977 -3.4943153858 13.534245491 -8.3775634766 -2.2435145378 13.627519608
          -8.7475280762 -2.4571135044 11.275988579 -9.0503425598 -2.6319437027 9.082449913
          -8.9517221451 -2.5750050545 6.4676852226 -11.117609978 -3.8254806995 6.3752861023
          -10.747449875 -3.6117687225 8.7276563644 -10.444541931 -3.4368853569 10.920679092
          -16.252801895 -2.4521222115 13.825062752 -14.106622696 -3.6912178993 13.491854668
          -13.924588203 -3.79631567 6.5062065125 -14.179386139 -3.6492083073 11.287112236
          -14.491090775 -3.4692456722 9.055185318 -16.072029114 -2.5564906597 6.547226429
          -16.399068832 -2.3676736355 9.3337717056 -15.736854553 -2.7500042915 11.461652756
          -14.20868969 3.6322898865 13.833886147 -16.28612709 2.4328811169 13.310724258
          -15.979883194 2.6096904278 10.849437714 -16.185125351 2.4911942482 8.6900129318
          -16.287872314 2.4318733215 6.1639404297 -14.209554672 3.6317911148 6.6852445602
          -14.516468048 3.4545943737 9.1446113586 -14.311245918 3.5730788708 11.305800438
          -15.120128632 -0.23195895553 16 -12.752146721 -1.9487257004 16
          -13.4227705 2.177220583 16 -9.3400850296 0.4088267982 16
          -12.02135849 0.59618419409 16 -10.72403717 -1.3333011866 16
          -12.357322693 3.2406954765 18.025712967 -4.2100467682 -0.51273471117 3.75
          -4.1874094009 -0.49930873513 6.25 -4.3659424782 -0.71328103542 8.75
          -3.9572873116 -0.23825773597 11.25 -3.8889198303 -0.15234303474 13.75
          -4.174223423 -0.47109338641 16.25 -21.035926819 -0.23057362437 16.25
          -20.824148178 -0.48883360624 13.75 -20.80415535 -0.51842927933 11.25
          -20.803283691 -0.51301389933 6.25 -20.816310883 -0.48506814241 3.75
          -20.827991486 0.49080520868 8.75 -13.12436676 -3.5912909508 2.1146867275
          -14.623991013 -1.9516121149 1.961758852 -12.053825378 3.2714459896 2.0172376633
          -10.238683701 2.1846649647 1.9650690556 -14.823892593 2.297850132 1.9443665743
          -11.398578644 -2.0822005272 2.125641346 -12.966472626 -3.317810297 17.989177704
          -10.095721245 -2.4322817326 18.065639496 -14.251171112 3.8913693428 18.152107239
          -10.132993698 1.7110369205 17.985628128 -7.8431797028 -2.1030981541 1.9231636524
          -15.171129227 1.6936089993 18.013179779 -1.9630926847 -0.96661990881 8.9628601074
          -22.842981339 0.77018177509 14.351521492 -1.9447014332 0.96491026878 14.328271866
          -12.616534233 0.98697447777 2.0599820614 -8.2943410873 -0.67630910873 18.014915466
          -13.104963303 1.047305584 17.998241425 -11.247571945 -0.28442794085 17.962266922
          -25 -1.5 20 -25 1.5 20
          -21.1028862 -3 20 -23.700962067 -3 20
          -13.717308044 -6.5140652657 20 -16.151924133 -5.1084394455 20
          -18.586540222 -3.7028131485 20 -6.4134602547 -3.7028131485 20
          -8.8480768204 -5.1084394455 20 -11.282692909 -6.5140652657 20
          -1.2990381718 -3 20 -3.8971142769 -3 20
          0 1.5 20 0 -1.5 20
          -3.8971142769 3 20 -1.2990381718 3 20
          -11.282692909 6.5140652657 20 -8.8480768204 5.1084394455 20
          -6.4134602547 3.7028131485 20 -18.586540222 3.7028131485 20
          -16.151924133 5.1084394455 20 -13.717308044 6.5140652657 20
          -23.700962067 3 20 -21.1028862 3 20
          -5.1961526871 -3 1.25 -5.1961526871 -3 3.75
          -5.1961526871 -3 6.25 -5.1961526871 -3 8.75
          -5.1961526871 -3 11.25 -5.1961526871 -3 13.75
          -5.1961526871 -3 16.25 -5.1961526871 -3 18.750001907
          -3.8971142769 -3 -1.7763568394e-15 -1.2990381718 -3 -1.7763568394e-15
          0 -3 18.750001907 0 -3 16.25
          0 -3 13.75 0 -3 11.25
          0 -3 8.75 0 -3 6.25
          0 -3 3.75 0 -3 1.25
          -12.5 -7.2168784142 18.750001907 -12.5 -7.2168784142 16.25
          -12.5 -7.2168784142 13.75 -12.5 -7.2168784142 11.25
          -12.5 -7.2168784142 8.75 -12.5 -7.2168784142 6.25
          -12.5 -7.2168784142 3.75 -12.5 -7.2168784142 1.25
          -11.282692909 -6.5140652657 -2.5566359671e-15 -8.8480768204 -5.1084394455 -2.2445242313e-15
          -6.4134602547 -3.7028131485 -1.9324127073e-15 -19.803848267 -3 18.750001907
          -19.803848267 -3 16.25 -19.803848267 -3 13.75
          -19.803848267 -3 11.25 -19.803848267 -3 8.75
          -19.803848267 -3 6.25 -19.803848267 -3 3.75
          -19.803848267 -3 1.25 -18.586540222 -3.7028131485 -1.9324127073e-15
          -16.151924133 -5.1084394455 -2.2445242313e-15 -13.717308044 -6.5140652657 -2.5566359671e-15
          -25 -3 18.750001907 -25 -3 16.25
          -25 -3 13.75 -25 -3 11.25
          -25 -3 8.75 -25 -3 6.25
          -25 -3 3.75 -25 -3 1.25
          -23.700962067 -3 -1.7763568394e-15 -21.1028862 -3 -1.7763568394e-15
          -25 3 1.25 -25 3 3.75
          -25 3 6.25 -25 3 8.75
          -25 3 11.25 -25 3 13.75
          -25 3 16.25 -25 3 18.750001907
          -25 -1.5 -1.4432900379e-15 -25 1.5 -7.7715611724e-16
          -19.803848267 3 1.25 -19.803848267 3 3.75
          -19.803848267 3 6.25 -19.803848267 3 8.75
          -19.803848267 3 11.25 -19.803848267 3 13.75
          -19.803848267 3 16.25 -19.803848267 3 18.750001907
          -23.700962067 3 -4.4408918338e-16 -21.1028862 3 -4.4408918338e-16
          0 3 1.25 0 3 3.75
          0 3 6.25 0 3 8.75
          0 3 11.25 0 3 13.75
          0 3 16.25 0 3 18.750001907
          -3.8971142769 3 -4.4408918338e-16 -1.2990381718 3 -4.4408918338e-16
          -5.1961526871 3 18.750001907 -5.1961526871 3 16.25
          -5.1961526871 3 13.75 -5.1961526871 3 11.25
          -5.1961526871 3 8.75 -5.1961526871 3 6.25
          -5.1961526871 3 3.75 -5.1961526871 3 1.25
          0 -1.5 -1.4432900379e-15 0 1.5 -7.7715611724e-16
          -12.5 7.2168784142 18.750001907 -12.5 7.2168784142 16.25
          -12.5 7.2168784142 13.75 -12.5 7.2168784142 11.25
          -12.5 7.2168784142 8.75 -12.5 7.2168784142 6.25
          -12.5 7.2168784142 3.75 -12.5 7.2168784142 1.25
          -18.586540222 3.7028131485 -2.8803331549e-16 -16.151924133 5.1084394455 2.4078352474e-17
          -13.717308044 6.5140652657 3.3619005021e-16 -11.282692909 6.5140652657 3.3619005021e-16
          -8.8480768204 5.1084394455 2.4078352474e-17 -6.4134602547 3.7028131485 -2.8803331549e-16
          -7.9159736633 1.9770157337 16 -9.74792099 3.0346908569 16
          -11.579867363 4.0923662186 16 -12.495841026 4.6212034225 5.1999998093
          -12.495841026 4.6212034225 7.5999999046 -12.495841026 4.6212034225 10
          -12.495841026 4.6212034225 12.399999619 -12.495841026 4.6212034225 14.800000191
          -11.579867363 4.0923662186 4 -9.74792099 3.0346908569 4
          -7.9159736633 1.9770157337 4 -7.0000004768 1.4481781721 5.1999998093
          -7.0000004768 1.4481781721 7.5999999046 -7.0000004768 1.4481781721 10
          -7.0000004768 1.4481781721 12.399999619 -7.0000004768 1.4481781721 14.800000191
          -18 -2.9698465909e-15 4 -13.413201332 -4.091565609 4
          -15.24792099 -3.0322897434 4 -17.082641602 -1.9730138779 4
          -7.9159736633 -1.9770157337 4 -9.74792099 -3.0346908569 4
          -11.579867363 -4.0923662186 4 -7.0000004768 -1.9984014443e-15 4
          -17.082641602 1.9730138779 4 -15.24792099 3.0322897434 4
          -13.413201332 4.091565609 4 -7.0000004768 -8.3266726847e-16 16
          -7.0000004768 -1.4481781721 14.800000191 -7.0000004768 -1.4481781721 12.399999619
          -7.0000004768 -1.4481781721 10 -7.0000004768 -1.4481781721 7.5999999046
          -7.0000004768 -1.4481781721 5.1999998093 -11.579867363 -4.0923662186 16
          -9.74792099 -3.0346908569 16 -7.9159736633 -1.9770157337 16
          -12.495841026 -4.6212034225 5.1999998093 -12.495841026 -4.6212034225 7.5999999046
          -12.495841026 -4.6212034225 10 -12.495841026 -4.6212034225 12.399999619
          -12.495841026 -4.6212034225 14.800000191 -17.082641602 -1.9730138779 16
          -15.24792099 -3.0322897434 16 -13.413201332 -4.091565609 16
          -18 -1.4433758259 5.1999998093 -18 -1.4433758259 7.5999999046
          -18 -1.4433758259 10 -18 -1.4433758259 12.399999619
          -18 -1.4433758259 14.800000191 -18 -2.2204460493e-15 16
          -18 1.4433758259 14.800000191 -18 1.4433758259 12.399999619
          -18 1.4433758259 10 -18 1.4433758259 7.5999999046
          -18 1.4433758259 5.1999998093 -13.413201332 4.091565609 16
          -15.24792099 3.0322897434 16 -17.082641602 1.9730138779 16
          -23.48840332 -0.13490906358 20 -23.700962067 -1.5 20
          -23.700962067 1.5 20 -22.189365387 -1.6349090338 20
          -20.890327454 -1.6349090338 20 -14.561527252 -4.8563156128 20
          -13.3442173 -5.5591287613 20 -15.778833389 -4.1535024643 20
          -18.091970444 -2.33517766 20 -16.874664307 -3.0379910469 20
          -8.1450271606 -3.2921731472 20 -6.9277191162 -2.5893602371 20
          -9.3623352051 -3.9949858189 20 -12.022080421 -5.6138648987 20
          -10.804772377 -4.9110512733 20 -2.3792054653 -1.7236846685 20
          -1.0801674128 -1.7236846685 20 -5.0531730652 -1.6166095734 20
          -3.7541351318 -1.6166095734 20 -1.2990381718 1.5 20
          -1.0801674128 -0.22368462384 20 -3.7541351318 1.3833905458 20
          -5.0531730652 1.3833905458 20 -10.707742691 5.0542240143 20
          -11.925052643 5.7570366859 20 -8.3557977676 3.5833106041 20
          -9.5731058121 4.2861237526 20 -7.5348858833 2.5595357418 20
          -17.260101318 2.939268589 20 -18.477407455 2.2364554405 20
          -14.961212158 4.4071650505 20 -16.178520203 3.704351902 20
          -12.861615181 5.8163433075 20 -14.078923225 5.113530159 20
          -20.890327454 1.365090847 20 -22.189365387 1.365090847 20
          -20.544366837 -0.2110157162 20 -19.45788765 -1.5761066675 20
          -12.866297722 -3.9561140537 20 -15.284265518 -2.7858667374 20
          -17.746011734 -0.91128444672 20 -6.7847399712 -1.2059694529 20
          -10.101722717 -3.0947849751 20 -3.535264492 -0.3402941823 20
          -2.3792054653 1.2763154507 20 -6.1745986938 0.24011304975 20
          -6.3175783157 1.8567225933 20 -10.215464592 3.5290956497 20
          -12.28666687 4.3565020561 20 -8.2599153519 1.7372201681 20
          -16.069389343 2.237994194 20 -18.131448746 0.66034883261 20
          -19.45788765 1.4238934517 20 -14.105520248 3.7094426155 20
          -13.351893425 -2.6538052559 20 -12.029756546 -2.7085411549 20
          -14.447723389 -1.5382940769 20 -16.76553154 -0.098722271621 20
          -8.0491456985 -0.7326374054 20 -10.587319374 -1.7924762964 20
          -10.641985893 2.2750844955 20 -11.776623726 3.0431847572 20
          -12.713188171 3.1024906635 20 -8.751121521 0.46984606981 20
          -9.5720329285 1.4936211109 20 -14.802534103 1.7480219603 20
          -15.884114265 0.98293870687 20 -13.595476151 2.396125555 20
          -15.498677254 -0.58869469166 20 -13.566305161 -0.45663312078 20
          -9.3612613678 -0.97623646259 20 -11.289295197 -0.58999276161 20
          -11.133192062 1.0077103376 20 -13.410203934 1.1410700083 20
          -12.359248161 0.19147051871 20 -1.2990381718 -3 18.750001907
          -3.8971142769 -3 18.750001907 -2.7127478123 -3 18.570240021
          -3.8971142769 -3 1.25 -4.0102295876 -3 2.7330088615
          -4.0102295876 -3 3.9830091 -3.9126229286 -3 5.4302473068
          -3.9126229286 -3 6.6802473068 -4.0961308479 -3 7.8186893463
          -4.0961308479 -3 9.0686893463 -3.9043245316 -3 10.057368279
          -3.9043245316 -3 11.307368279 -3.8899633884 -3 12.47010994
          -3.7282171249 -3 13.518348694 -4.0117855072 -3 16.070240021
          -4.0117855072 -3 17.320241928 -2.7111911774 -3 1.4830088615
          -1.2990381718 -3 1.25 -1.4137096405 -3 17.320241928
          -1.4137096405 -3 16.070240021 -1.1301409006 -3 14.768350601
          -1.1301409006 -3 13.518348694 -1.2918868065 -3 12.47010994
          -1.306248188 -3 11.307368279 -1.306248188 -3 10.057368279
          -1.4980543852 -3 9.0686893463 -1.3145465851 -3 6.6802473068
          -1.3145465851 -3 5.4302473068 -1.4121531248 -3 3.9830091
          -1.4121531248 -3 2.7330088615 -2.7267000675 -3 4.4132561684
          -2.8126010895 -3 6.9989366531 -2.8043026924 -3 9.1260576248
          -2.5981352329 -3 11.277477264 -2.4220280647 -3 13.488459587
          -3.7282171249 -3 14.768350601 -2.5438504219 -3 15.838590622
          -1.4980543852 -3 7.8186893463 -7.5494933128 -4.3587021828 18.609977722
          -6.4134602547 -3.7028131485 18.750001907 -10.147705078 -5.8587799072 18.877033234
          -8.9303970337 -5.1559667587 18.877033234 -11.365013123 -6.5615935326 18.877033234
          -11.365013123 -6.5615935326 17.627033234 -11.299739838 -6.5239086151 16.320989609
          -11.1723423 -6.4503545761 13.966329575 -11.299739838 -6.5239086151 15.070989609
          -11.405046463 -6.5847063065 10.206030846 -11.405046463 -6.5847063065 11.456031799
          -11.268648148 -6.5059566498 8.8559589386 -11.268648148 -6.5059566498 6.3559579849
          -11.268648148 -6.5059566498 7.6059579849 -11.352544785 -6.554394722 2.6493952274
          -11.352544785 -6.554394722 3.8993952274 -11.282692909 -6.5140652657 1.25
          -10.13523674 -5.8515825272 1.3993952274 -7.6534371376 -4.4187140465 0.93736088276
          -8.8707456589 -5.121527195 0.93736088276 -6.43612957 -3.7159011364 0.93736088276
          -6.43612957 -3.7159011364 2.187361002 -6.2715206146 -3.6208643913 4.8075532913
          -6.2715206146 -3.6208643913 3.5575535297 -6.3487124443 -3.6654307842 6.2670989037
          -6.3487124443 -3.6654307842 8.7670993805 -6.3487124443 -3.6654307842 7.5170984268
          -6.4507269859 -3.7243289948 11.286593437 -6.4507269859 -3.7243289948 10.036593437
          -6.4176931381 -3.7052569389 13.76598835 -6.4176931381 -3.7052569389 12.51598835
          -6.3321857452 -3.6558890343 17.359977722 -6.3321857452 -3.6558890343 16.109977722
          -8.8491230011 -5.1090431213 17.487009048 -10.164752007 -5.8686232567 16.448020935
          -11.1723423 -6.4503545761 12.716329575 -9.9720821381 -5.7573843002 14.037317276
          -10.077388763 -5.8181829453 11.672361374 -10.173692703 -5.8737840652 9.0619888306
          -11.051891327 -6.380812645 5.2209639549 -9.8205385208 -5.6698904037 6.5769219398
          -9.9044370651 -5.7183289528 4.1203589439 -8.9405994415 -5.1618571281 2.3367562294
          -7.5114974976 -4.3367652893 3.2449145317 -7.4240808487 -4.2862949371 6.074652195
          -7.6032867432 -4.3897595406 8.8036928177 -7.672267437 -4.4295854568 11.302581787
          -6.5427536964 -3.7774605751 14.850224495 -7.7642936707 -4.4827170372 13.616212845
          -7.6787862778 -4.4333496094 15.960202217 -8.7838487625 -5.0713582039 16.180965424
          -8.8670186996 -5.1193761826 13.816553116 -8.9944171906 -5.192928791 14.921212196
          -8.9746618271 -5.1815242767 11.472019196 -8.7419586182 -5.0471725464 12.732316971
          -8.8712968826 -5.121846199 8.8925523758 -9.0076961517 -5.2005958557 10.242625237
          -8.552526474 -4.9378037453 6.4880628586 -8.7692832947 -5.0629477501 7.6230564117
          -8.7759904861 -5.0668201447 3.7069485188 -8.4753360748 -4.8932375908 5.0285172462
          -14.616814613 -5.9947347641 18.740903854 -13.399507523 -6.6975474358 18.740903854
          -17.187198639 -4.5107235909 18.809623718 -15.969888687 -5.2135367393 18.809623718
          -18.586540222 -3.7028131485 18.750001907 -18.404506683 -3.8079104424 17.559623718
          -18.741405487 -3.6134016514 14.859972 -18.741405487 -3.6134016514 16.109970093
          -18.741405487 -3.6134016514 13.609972 -18.877374649 -3.5348997116 10.961130142
          -18.877374649 -3.5348997116 12.211130142 -18.582780838 -3.7049839497 8.5844144821
          -18.582780838 -3.7049839497 9.8344144821 -18.924110413 -3.5079164505 4.9963121414
          -18.924110413 -3.5079164505 6.2463121414 -18.924110413 -3.5079164505 3.7463121414
          -18.642475128 -3.6705198288 1.2117595673 -18.642475128 -3.6705198288 2.4617595673
          -17.425165176 -4.3733329773 1.2117595673 -14.845801353 -5.8625292778 1.1255578995
          -16.063108444 -5.1597161293 1.1255578995 -13.628493309 -6.5653419495 1.1255578995
          -13.399507523 -6.6975474358 17.490903854 -13.399507523 -6.6975474358 16.240903854
          -13.754559517 -6.4925580025 14.949126244 -13.754559517 -6.4925580025 13.699126244
          -13.576365471 -6.5954380035 11.059492111 -13.576365471 -6.5954380035 9.8094911575
          -13.576365471 -6.5954380035 8.5594921112 -13.481349945 -6.6502957344 7.1680493355
          -13.481349945 -6.6502957344 5.9180488586 -13.628493309 -6.5653419495 3.6255578995
          -13.628493309 -6.5653419495 2.3755578995 -15.652090073 -5.3970189095 17.550525665
          -17.342063904 -4.4213118553 16.169593811 -17.81493187 -4.1483011246 13.321102142
          -17.65630722 -4.2398834229 10.795544624 -18.288066864 -3.8751368523 7.3930258751
          -17.066997528 -4.5801210403 8.4774398804 -17.408330917 -4.3830533028 6.1393375397
          -17.762737274 -4.1784362793 3.7080714703 -16.11904335 -5.1274228096 2.3373174667
          -14.654066086 -5.9732270241 16.190029144 -15.319872856 -5.5888233185 13.576351166
          -14.065314293 -6.3131437302 12.377225876 -15.141679764 -5.6917042732 10.936717987
          -14.557715416 -6.0288562775 8.2275400162 -15.020406723 -5.761721611 5.7610602379
          -14.039056778 -6.3283042908 4.8430109024 -15.167550087 -5.6767678261 3.4685692787
          -16.007141113 -5.1920294762 16.258749008 -16.344039917 -4.9975209236 14.80909729
          -16.79076767 -4.7396039963 12.088356018 -16.654794693 -4.8181061745 13.487196922
          -16.496170044 -4.9096884727 10.961639404 -15.712509155 -5.362136364 8.4525165558
          -16.007221222 -5.191983223 9.6439056396 -16.811244965 -4.7277812958 4.8393235207
          -16.175197601 -5.0950021744 5.9860367775 -16.529605865 -4.8903846741 3.5547707081
          -15.617492676 -5.4169940948 7.0610742569 -21.1028862 -3 18.750001907
          -23.700962067 -3 18.750001907 -22.513278961 -3 18.498003006
          -23.812316895 -3 17.248003006 -23.812316895 -3 15.998002052
          -23.710079193 -3 13.243607521 -23.710079193 -3 14.493607521
          -23.701553345 -3 10.665210724 -23.701553345 -3 11.915211678
          -23.701015472 -3 8.145316124 -23.701015472 -3 9.3953170776
          -23.701290131 -3 5.6550569534 -23.701290131 -3 6.9050569534
          -23.70772934 -3 3.2120628357 -23.70772934 -3 4.4620628357
          -23.910804749 -3 0.91268479824 -23.910804749 -3 2.1626849174
          -22.611766815 -3 0.91268479824 -21.1028862 -3 1.25
          -21.214241028 -3 17.248003006 -21.214241028 -3 15.998002052
          -21.112003326 -3 14.493607521 -21.112003326 -3 13.243607521
          -21.103477478 -3 11.915211678 -21.103477478 -3 10.665210724
          -21.102935791 -3 9.3953170776 -21.102935791 -3 8.145316124
          -21.103214264 -3 6.9050569534 -21.103214264 -3 5.6550569534
          -21.109653473 -3 4.4620628357 -21.109653473 -3 3.2120628357
          -22.522396088 -3 15.491609573 -22.411632538 -3 12.658819199
          -22.402565002 -3 10.060528755 -22.402305603 -3 7.5503735542
          -22.40901947 -3 5.1171197891 -22.618530273 -3 2.8747475147
          -21.312725067 -3 2.1626849174 -25 -1.5 18.750001907
          -25 0.13214106858 18.568429947 -25 1.5 18.750001907
          -25 1.8389258385 2.4869253635 -25 1.8389258385 1.2369252443
          -25 1.8389258385 3.7369253635 -25 1.5013302565 6.2320213318
          -25 1.5227265358 4.9611349106 -25 1.4996432066 8.7313070297
          -25 1.5013302565 7.4820213318 -25 1.4916167259 11.197968483
          -25 1.4996432066 9.9813079834 -25 1.3062074184 13.511600494
          -25 1.4916167259 12.447967529 -25 1.6321409941 17.318429947
          -25 1.6321409941 16.068431854 -25 -1.5 1.25
          -25 0.33892574906 1.2369252443 -25 -1.3678588867 16.068431854
          -25 -1.3678588867 17.318429947 -25 -1.6937924623 13.511600494
          -25 -1.6937924623 14.761600494 -25 -1.5083835125 11.197968483
          -25 -1.5083835125 12.447967529 -25 -1.5003569126 8.7313070297
          -25 -1.5003569126 9.9813079834 -25 -1.4986698627 6.2320213318
          -25 -1.4986698627 7.4820213318 -25 -1.4772734642 3.7111349106
          -25 -1.4772734642 4.9611349106 -25 0.36165231466 3.6980602741
          -25 0.024056788534 6.1931562424 -25 0.00097333861049 8.7133293152
          -25 -0.0087403422222 11.179275513 -25 1.3062074184 14.761600494
          -25 -0.20217594504 13.459568977 -25 -0.061651401222 15.830030441
          -25 -1.1610742807 2.4869253635 -23.700962067 3 18.750001907
          -20.975780487 3 18.662960052 -22.27481842 3 18.662960052
          -20.933349609 3 1.1062501669 -20.933349609 3 2.3562502861
          -20.933349609 3 3.6062502861 -21.101427078 3 5.0760741234
          -21.101427078 3 6.3260741234 -21.102748871 3 7.9413075447
          -21.102748871 3 9.1913080215 -21.102865219 3 10.528640747
          -21.102865219 3 11.778640747 -21.10256958 3 12.963309288
          -21.10256958 3 14.213309288 -20.975780487 3 16.162958145
          -20.975780487 3 17.412958145 -23.700962067 3 1.25
          -22.232387543 3 1.1062501669 -23.699502945 3 5.0760741234
          -23.699502945 3 3.8260741234 -23.699502945 3 6.3260741234
          -23.700826645 3 9.1913080215 -23.700826645 3 7.9413075447
          -23.700941086 3 11.778640747 -23.700941086 3 10.528640747
          -23.700645447 3 14.213309288 -23.700645447 3 12.963309288
          -23.573856354 3 17.412958145 -23.675647736 3 16.375423431
          -22.230928421 3 3.6823244095 -22.400325775 3 6.7673821449
          -22.401763916 3 9.7199478149 -22.401584625 3 12.241949081
          -22.376293182 3 14.338730812 -21.077571869 3 15.125422478
          -22.249504089 3 16.288379669 -23.531425476 3 2.3562502861
          -23.675647736 3 15.125422478 -3.8971142769 3 18.750001907
          -1.1718827486 3 18.663421631 -2.4709208012 3 18.663421631
          -1.0381350517 3 1.3266330957 -1.0381350517 3 2.5766329765
          -1.0381350517 3 3.8266329765 -1.3975309134 3 5.2421998978
          -1.3975309134 3 6.4922003746 -1.307231307 3 7.9938769341
          -1.307231307 3 9.2438774109 -1.2995812893 3 10.544857025
          -1.2995812893 3 11.794857025 -1.2987551689 3 12.968353271
          -1.2987551689 3 14.218353271 -1.1718827486 3 16.163421631
          -1.1718827486 3 17.413421631 -3.8971142769 3 1.25
          -2.3371729851 3 1.3266330957 -3.7699592113 3 17.413421631
          -3.8717243671 3 16.377260208 -3.896831274 3 14.218353271
          -3.896831274 3 12.968353271 -3.8976573944 3 11.794857025
          -3.8976573944 3 10.544857025 -3.9053077698 3 9.2438774109
          -3.9053077698 3 7.9938769341 -3.9956071377 3 6.4922003746
          -3.9956071377 3 5.2421998978 -3.9956071377 3 3.9921998978
          -2.4356658459 3 4.0688333511 -2.7047622204 3 6.9860773087
          -2.6068127155 3 9.7887334824 -2.5983362198 3 12.263210297
          -2.5724029541 3 14.345611572 -1.2736480236 3 15.127258301
          -2.4455308914 3 16.290679932 -3.6362113953 3 2.5766329765
          -3.8717243671 3 15.127258301 0 1.5 18.750001907
          0 -1.8389258385 18.763074875 0 -0.33892574906 18.763074875
          0 -1.8389258385 17.513076782 0 -1.8389258385 16.263074875
          0 -1.5013477802 13.764387131 0 -1.522715807 15.038297653
          0 -1.5000766516 11.254734039 0 -1.5013477802 12.514389038
          0 -1.5000044107 8.751534462 0 -1.5000766516 10.004734039
          0 -1.5000002384 6.2504854202 0 -1.5000044107 7.5015335083
          0 -1.5 3.7501349449 0 -1.5000002384 5.0004854202
          0 -1.5 1.25 0 -1.5 2.5001347065
          0 -1.3349799488e-08 1.2501347065 0 1.5 1.25
          0 1.5 3.7501349449 0 1.5 2.5001347065
          0 1.4999997616 6.2504854202 0 1.4999997616 5.0004854202
          0 1.4999957085 8.751534462 0 1.4999957085 7.5015335083
          0 1.4999234676 11.254734039 0 1.4999234676 10.004734039
          0 1.4986524582 13.764387131 0 1.4986524582 12.514389038
          0 1.477284193 16.288297653 0 1.477284193 15.038297653
          0 1.1610742807 17.513076782 0 -0.36164164543 16.301370621
          0 -0.024063583463 13.802684784 0 -0.0014243269106 11.269122124
          0 -8.0944890215e-05 8.7562675476 0 -4.5398492148e-06 6.2520194054
          0 -2.5349078214e-07 3.7506201267 -18.451072693 3.7810254097 19.036474228
          -17.233764648 4.4838385582 19.036474228 -16.016456604 5.1866521835 19.036474228
          -14.724643707 5.9324808121 19.05831337 -13.507333755 6.6352939606 19.05831337
          -13.507333755 6.6352939606 17.808311462 -13.816921234 6.4565525055 16.59147644
          -13.816921234 6.4565525055 15.34147644 -13.615574837 6.5728006363 13.838924408
          -13.615574837 6.5728006363 12.588924408 -13.615574837 6.5728006363 11.338925362
          -13.732128143 6.5055093765 8.8502006531 -13.732128143 6.5055093765 7.6002001762
          -13.647989273 6.5540866852 6.1321163177 -13.647989273 6.5540866852 4.8821158409
          -13.647989273 6.5540866852 3.6321160793 -13.756302834 6.4915513992 2.2165989876
          -13.756302834 6.4915513992 0.96659892797 -17.452470779 4.3575677872 1.4683983326
          -18.586540222 3.7028131485 1.25 -14.973611832 5.7887382507 0.96659892797
          -16.190917969 5.0859255791 0.96659892797 -18.669778824 3.6547551155 2.7183983326
          -18.669778824 3.6547551155 3.9683980942 -18.559978485 3.7181491852 5.4848423004
          -18.559978485 3.7181491852 6.7348427773 -18.628732681 3.6784529686 8.0889148712
          -18.628732681 3.6784529686 9.3389139175 -18.59862709 3.6958346367 10.653630257
          -18.59862709 3.6958346367 11.903630257 -18.559911728 3.7181863785 13.139538765
          -18.559911728 3.7181863785 14.389538765 -18.782072067 3.5899231434 15.504188538
          -18.782072067 3.5899231434 16.754190445 -18.451072693 3.7810254097 17.786472321
          -15.806483269 5.3078799248 18.09478569 -14.824256897 5.8749680519 16.899787903
          -14.932497978 5.8124756813 14.180401802 -15.00296402 5.771791935 11.3854599
          -13.887387276 6.4158697128 10.046534538 -15.119515419 5.7045006752 8.8967342377
          -14.880117416 5.8427171707 6.2323160172 -14.90429306 5.8287596703 3.3487148285
          -16.274158478 5.0378665924 2.4349970818 -17.425909042 4.3729038239 4.4532403946
          -17.3848629 4.3966016769 7.3237566948 -17.423513412 4.3742876053 9.9925441742
          -17.354690552 4.4140210152 12.543169022 -17.538135529 4.3081097603 14.893727303
          -17.429296494 4.3709487915 17.040662766 -16.116069794 5.1291394234 16.877948761
          -16.224910736 5.0662999153 14.731015205 -16.023563385 5.1825480461 13.228463173
          -16.062278748 5.1601963043 11.992554665 -16.334091187 5.0032653809 10.700163841
          -16.364196777 4.9858832359 9.3854484558 -16.208936691 5.0755233765 8.1891145706
          -16.140182495 5.1152186394 6.8350419998 -16.056043625 5.163795948 5.3669586182
          -16.165845871 5.1004023552 3.8505139351 -16.447069168 4.9380369186 15.845665932
          -11.435269356 6.6021561623 18.958658218 -10.217962265 5.8993430138 18.958658218
          -8.8499765396 5.1095366478 18.741521835 -7.6326694489 4.4067234993 18.741521835
          -6.4134602547 3.7028131485 18.750001907 -6.4153614044 3.7039103508 17.491521835
          -6.2131638527 3.5871720314 16.072013855 -6.2131638527 3.5871720314 14.822014809
          -6.2131638527 3.5871720314 13.572014809 -6.466424942 3.7333922386 12.463011742
          -6.466424942 3.7333922386 11.213010788 -6.1464891434 3.5486769676 8.8369550705
          -6.1464891434 3.5486769676 7.5869541168 -6.1464891434 3.5486769676 6.3369541168
          -6.4795441628 3.7409665585 3.8057131767 -6.4795441628 3.7409665585 2.5557131767
          -6.4134602547 3.7028131485 1.25 -10.272529602 5.9308476448 1.0524843931
          -11.489835739 6.6336603165 1.0524843931 -7.6968522072 4.4437794685 1.3057129383
          -8.9141597748 5.1465930939 1.3057129383 -11.435269356 6.6021561623 17.708656311
          -11.139099121 6.4311623573 15.134911537 -11.139099121 6.4311623573 16.384912491
          -11.444344521 6.6073951721 12.465176582 -11.444344521 6.6073951721 13.715176582
          -11.444344521 6.6073951721 11.215177536 -11.19024086 6.4606881142 7.6202054024
          -11.390087128 6.5760703087 8.7818450928 -11.430234909 6.5992488861 4.8905334473
          -11.430234909 6.5992488861 6.1405334473 -11.430234909 6.5992488861 3.6405336857
          -11.489835739 6.6336603165 2.3024842739 -9.0025539398 5.1976270676 17.700178146
          -7.43237257 4.2910823822 16.06353569 -7.4834365845 4.32056427 13.535024643
          -7.9680452347 4.6003537178 11.235646248 -6.6977734566 3.8669612408 10.022634506
          -7.6481099129 4.41563797 8.8595895767 -7.5505447388 4.3593091965 6.5663871765
          -6.6002082825 3.8106319904 5.2294330597 -7.8835988045 4.5515985489 4.0351457596
          -9.121304512 5.2661876678 2.3581974506 -10.074369431 5.8164401054 16.593568802
          -10.083444595 5.8216791153 13.85008812 -11.390087128 6.5760703087 10.031844139
          -10.334432602 5.9665870667 11.247020721 -10.120475769 5.8430585861 6.2607388496
          -10.080327988 5.8198795319 8.9020500183 -10.420070648 6.0160307884 3.443018198
          -8.7063846588 5.0266332626 16.376434326 -8.5041875839 4.9098949432 14.956926346
          -8.7574491501 5.0561151505 13.847923279 -9.0626935959 5.2323479652 12.428188324
          -9.2940416336 5.3659176826 11.237811089 -9.0399370193 5.2192106247 8.8928394318
          -8.488653183 4.90092659 7.7071595192 -8.9423723221 5.1628808975 6.5996379852
          -9.1823663712 5.3014416695 5.1199669838 -9.0617027283 5.2317762375 3.6962463856
          -9.2397842407 5.3345923424 10.054479599 -16.777282715 3.680678606 -2.9294819769e-16
          -17.994592667 2.977865696 -4.4900401265e-16 -15.55997467 4.383491993 -1.3689234303e-16
          -12.925171852 5.4668521881 1.0366204275e-16 -14.142479897 4.7640390396 -5.2393805288e-17
          -10.343445778 4.8601818085 -3.1045894952e-17 -11.560753822 5.5629944801 1.2500996633e-16
          -9.1261377335 4.15736866 -1.8710174299e-16 -6.6382575035 2.3634934425 -5.8542205693e-16
          -7.8555660248 3.0663063526 -4.2936618904e-16 -3.6642005444 1.5692219734 -7.617857515e-16
          -4.9632387161 1.5692219734 -7.617857515e-16 -1.0515406132 1.7236119509 -7.2750431642e-16
          -2.3505787849 1.7236119509 -7.2750431642e-16 -1.2990381718 -1.5 -1.4432900379e-15
          -1.0515406132 0.22361190617 -1.0605711179e-15 -4.9632387161 -1.430778265 -1.4279195663e-15
          -3.6642005444 -1.430778265 -1.4279195663e-15 -12.046278 -5.7115907669 -2.3784511517e-15
          -10.828969955 -5.0087780952 -2.2223952838e-15 -9.6381111145 -4.3106775284 -2.0673857134e-15
          -8.4208021164 -3.6078648567 -1.9113298455e-15 -7.4491620064 -2.6578683853 -1.7003883602e-15
          -18.077241898 -2.5068335533 -1.6668518906e-15 -16.859933853 -3.2096467018 -1.8229078644e-15
          -15.549055099 -4.206325531 -2.0442149153e-15 -14.331747055 -4.9091382027 -2.2002705715e-15
          -13.114439011 -5.6119513512 -2.3563266511e-15 -23.918010712 -1.7214312553 -1.4924576535e-15
          -22.618970871 -1.7214312553 -1.4924576535e-15 -21.240146637 -1.6012408733 -1.4657699747e-15
          -19.941108704 -1.6012408733 -1.4657699747e-15 -23.918010712 -0.22143134475 -1.1593906402e-15
          -23.700962067 1.5 -7.7715611724e-16 -19.941108704 1.3987590075 -7.9963610696e-16
          -21.240146637 1.3987590075 -7.9963610696e-16 -16.834821701 1.8831279278 -6.9208468082e-16
          -18.644077301 1.905262351 -6.8716977214e-16 -14.767839432 3.3362789154 -3.6942034387e-16
          -11.985925674 3.8129687309 -2.6357391564e-16 -9.3509349823 2.818048954 -4.8449045797e-16
          -6.4053440094 0.93271523714 -9.0311859858e-16 -3.4167032242 0.29283374548 -1.0452009639e-15
          -2.3505787849 -1.2763880491 -1.3936381312e-15 -6.2318539619 -1.9550551176 -1.5443324923e-15
          -5.9989404678 -0.38583323359 -1.1958952192e-15 -12.660717964 -4.1066641808 -2.0220855443e-15
          -10.401696205 -3.5082035065 -1.8892006862e-15 -8.2391967773 -1.860106945 -1.5232496305e-15
          -18.214500427 -1.1080743074 -1.35626492e-15 -15.039756775 -3.0103456974 -1.7786539928e-15
          -21.457195282 -0.32267224789 -1.181870577e-15 -22.618970871 1.2785686255 -8.2632378579e-16
          -18.781337738 0.3040214777 -1.0427167222e-15 -15.356916428 1.8501439095 -6.994085512e-16
          -16.006402969 0.77754080296 -9.3757431069e-16 -13.9394207 2.230691433 -6.1490997375e-16
          -11.086312294 2.6471898556 -5.2242885192e-16 -12.450731277 2.5510473251 -5.4377678211e-16
          -9.8157405853 1.5561275482 -7.6469335091e-16 -7.6739597321 0.40843838453 -1.0195315246e-15
          -13.160528183 -2.7688012123 -1.72502029e-15 -12.092366219 -2.8684403896 -1.7471447906e-15
          -10.901507378 -2.170340538 -1.5921354319e-15 -9.5240373611 -1.6145395041 -1.4687227315e-15
          -8.5523967743 -0.66454285383 -1.2577812462e-15 -16.917470932 -0.60157108307 -1.2437986381e-15
          -14.471405983 -1.7721222639 -1.5037132391e-15 -15.439565659 -0.63455498219 -1.2511226144e-15
          -13.039808273 1.0649123192 -8.7376488355e-16 -8.9588003159 0.65400570631 -9.6500462565e-16
          -10.694177628 0.48314625025 -1.0029430196e-15 -11.214706421 -0.97477650642 -1.3266669418e-15
          -13.560337067 -0.39301034808 -1.1974888058e-15 -12.07164669 -0.072654739022 -1.1263556141e-15
          -7.9159736633 1.9770157337 14.800000191 -8.8945236206 2.5419821739 14.758253098
          -9.8104972839 3.0708196163 14.758253098 -10.886172295 3.6918604374 14.787825584
          -11.802145004 4.2206978798 14.787825584 -11.614388466 4.1122965813 6.3113851547
          -11.614388466 4.1122965813 5.1113843918 -11.614388466 4.1122965813 7.5113844872
          -11.606855392 4.1079473495 11.156071663 -11.606855392 4.1079473495 9.9560718536
          -11.802145004 4.2206978798 13.587825775 -11.802145004 4.2206978798 12.387825012
          -10.698413849 3.583458662 5.1113843918 -9.7824401855 3.0546212196 5.1113843918
          -8.7160797119 2.4389567375 5.3146338463 -7.9159736633 1.9770157337 5.1999998093
          -7.8001050949 1.9101192951 6.5146331787 -7.8001050949 1.9101192951 7.7146339417
          -7.7028942108 1.8539942503 8.9841384888 -7.7028942108 1.8539942503 10.184139252
          -7.9785499573 2.0131444931 12.358251572 -7.9785499573 2.0131444931 13.558252335
          -10.032775879 3.1991517544 13.546076775 -11.337873459 3.9526512623 8.7365226746
          -10.456422806 3.4437441826 7.4479074478 -10.913160324 3.7074420452 12.343896866
          -10.448889732 3.4393954277 9.8925943375 -9.6665735245 2.987724781 6.4260187149
          -8.5030002594 2.3159356117 7.8987731934 -8.7126274109 2.4369645119 10.043840408
          -8.0097332001 2.0311484337 11.059702873 -8.988284111 2.5961148739 12.217952728
          -9.8374853134 3.0864012241 12.314324379 -9.3900594711 2.8280801773 7.6511554718
          -9.8686695099 3.1044051647 11.015773773 -9.59968853 2.949108839 9.7962245941
          -9.292848587 2.7719550133 8.9206609726 -16.667730331 -0.96043419838 4
          -16.667730331 0.4829416275 4 -12.75961113 -3.5050890446 4
          -13.676971436 -2.9754507542 4 -14.833010674 -2.0197100639 4
          -15.750370979 -1.4900721312 4 -8.2787942886 -0.83977544308 4
          -9.194767952 -1.3686130047 4 -10.110741615 -1.8974505663 4
          -11.843637466 -2.9762511253 4 -8.2787942886 0.60840260983 4
          -12.075376511 3.264765501 4 -11.159402847 2.7359280586 4
          -10.243430138 2.2070903778 4 -9.194767952 1.1372401714 4
          -15.750370979 1.0125794411 4 -15.0390625 1.8974434137 4
          -14.121703148 2.4270813465 4 -12.992736816 2.735127449 4
          -14.179420471 -1.4332332611 4 -10.866604805 -0.42700964212 4
          -11.419757843 -2.0930874348 4 -12.599500656 -1.5058102608 4
          -10.606250763 0.83847731352 4 -14.624153137 0.40737134218 4
          -12.78387928 1.6002812386 4 -13.755540848 -0.55006957054 4
          -11.915267944 0.64284050465 4 -13.044233322 0.33479437232 4
          -7.0000004768 -2.7311486829e-15 14.800000191 -7.0000004768 -2.2648549279e-15 5.1999998093
          -7.0000004768 -2.5313084114e-15 6.4000005722 -7.0000004768 -2.7977621068e-15 7.5999999046
          -7.0000004768 -3.0642155903e-15 8.8000001907 -7.0000004768 -3.3306690739e-15 10
          -7.0000004768 -3.5971227692e-15 11.199999809 -7.0000004768 -3.863576041e-15 12.399999619
          -7.0000004768 -4.1300297363e-15 13.600000381 -11.579867363 -4.0923662186 14.800000191
          -10.603953362 -3.5289218426 14.767123222 -9.6879806519 -3.0000841618 14.767123222
          -8.6047554016 -2.374683857 14.813760757 -7.6887817383 -1.8458464146 14.813760757
          -7.6887817383 -1.8458464146 13.613759041 -7.6887817383 -1.8458464146 12.413759232
          -7.8737635612 -1.9526457787 11.237994194 -7.8737635612 -1.9526457787 10.037994385
          -7.9758601189 -2.0115914345 7.6338424683 -7.9758601189 -2.0115914345 6.433842659
          -7.9159736633 -1.9770157337 5.1999998093 -8.891834259 -2.5404291153 5.2338418961
          -9.8078069687 -3.0692667961 5.2338418961 -10.890750885 -3.6945044994 5.1876425743
          -11.806724548 -4.2233419418 5.1876425743 -11.806724548 -4.2233419418 6.3876433372
          -11.806724548 -4.2233419418 7.5876426697 -11.621644974 -4.1164865494 8.7638282776
          -11.621644974 -4.1164865494 9.9638280869 -11.519927979 -4.057759285 12.367123604
          -11.519927979 -4.057759285 13.567122459 -9.4607887268 -2.8689148426 13.580883026
          -8.5625448227 -2.3503141403 12.451753616 -8.8989343643 -2.5445284843 10.179219246
          -8.0251712799 -2.040060997 8.9412250519 -9.0010318756 -2.6034741402 7.7750673294
          -10.034666061 -3.2002427578 6.421485424 -10.932529449 -3.7186245918 7.5514707565
          -10.595996857 -3.5243272781 9.8241682053 -11.470192909 -4.0290446281 11.060340881
          -10.494277954 -3.4656004906 12.227462769 -9.6457700729 -2.9757144451 12.405117035
          -9.5960350037 -2.9469995499 11.098335266 -9.7474422455 -3.0344147682 10.001564026
          -9.8988952637 -3.121856451 8.9050531387 -9.8495855331 -3.0933868885 7.597671032
          -17.126399994 -1.9477491379 14.912530899 -16.209039688 -2.4773869514 14.912530899
          -15.291680336 -3.0070252419 14.912530899 -14.218592644 -3.6265728474 14.745926857
          -13.301231384 -4.1562108994 14.745926857 -13.210214615 -4.2087593079 6.4531035423
          -13.210214615 -4.2087593079 5.2531032562 -13.210214615 -4.2087593079 7.6531033516
          -13.337614059 -4.1352057457 10.04355526 -13.493466377 -4.0452246666 8.9275922775
          -13.301231384 -4.1562108994 13.545928001 -13.301231384 -4.1562108994 12.345928192
          -14.127574921 -3.6791217327 5.2531032562 -15.201293945 -3.0592088699 5.2736134529
          -16.118656158 -2.5295710564 5.2736134529 -17.082641602 -1.9730138779 5.1999998093
          -17.036014557 -1.9999332428 6.4736132622 -17.036014557 -1.9999332428 7.6736135483
          -17.19953537 -1.9055247307 9.0668849945 -17.19953537 -1.9055247307 10.266885757
          -17.126399994 -1.9477491379 12.512531281 -17.126399994 -1.9477491379 13.71253109
          -15.179711342 -3.0716702938 13.658457756 -14.207839966 -3.6327805519 7.7806954384
          -13.337614059 -4.1352057457 11.243555069 -14.33523941 -3.5592269897 10.171147346
          -14.143004417 -3.6702129841 12.389483452 -14.998308182 -3.1764030457 6.5267162323
          -16.235549927 -2.4620821476 7.9404993057 -16.067960739 -2.5588390827 10.397711754
          -16.868427277 -2.0966899395 11.330825806 -15.994826317 -2.6010632515 12.643357277
          -14.921737671 -3.220610857 12.476753235 -15.281560898 -3.012868166 7.8012061119
          -14.958119392 -3.1996061802 11.374382019 -15.113972664 -3.1096248627 10.258418083
          -15.445079803 -2.9184598923 9.194478035 -18 -3.4250380733e-15 14.800000191
          -18 -2.9587443183e-15 5.1999998093 -18 -3.7692072533e-15 7.5999999046
          -18 -4.0356605251e-15 8.8000001907 -18 -4.3021142204e-15 10
          -18 -4.5685674922e-15 11.199999809 -18 -4.8350211875e-15 12.399999619
          -18 -5.1014744593e-15 13.600000381 -18 -3.5027539815e-15 6.4000005722
          -13.352265358 4.1267466545 14.91694355 -14.269626617 3.5971088409 14.91694355
          -15.186985016 3.067470789 14.91694355 -16.225702286 2.4677662849 14.655362129
          -17.082641602 1.9730138779 14.800000191 -17.143062592 1.9381284714 13.455363274
          -17.143062592 1.9381284714 12.255363464 -16.989942551 2.0265331268 9.8247184753
          -17.092563629 1.9672851562 8.7450065613 -17.092563629 1.9672851562 7.5450062752
          -17.143938065 1.9376244545 6.2819709778 -17.143938065 1.9376244545 5.0819702148
          -16.226575851 2.4672625065 5.0819702148 -15.309217453 2.9969003201 5.0819702148
          -14.270056725 3.5968592167 5.3426222801 -13.413201332 4.091565609 5.1999998093
          -13.352698326 4.1264972687 6.5426216125 -13.352698326 4.1264972687 7.7426223755
          -13.506155014 4.0378990173 10.172305107 -13.403543472 4.0971412659 11.252900124
          -13.403543472 4.0971412659 12.452899933 -13.352265358 4.1267466545 13.716943741
          -15.247407913 3.0325853825 13.572306633 -16.133005142 2.5212857723 12.08008194
          -16.989942551 2.0265331268 11.024719238 -16.082504272 2.5504422188 9.7697257996
          -16.236497879 2.4615337849 7.4269766808 -15.248713493 3.0318322182 6.4245920181
          -14.363010406 3.5431923866 7.9149274826 -13.506155014 4.0378990173 8.9723052979
          -14.41385746 3.5138366222 10.225205421 -14.259967804 3.602684021 12.569843292
          -15.298686028 3.0029799938 12.308263779 -15.145565033 3.0913848877 11.077618599
          -15.248175621 3.0321421623 9.9970235825 -15.350795746 2.9728939533 8.9173116684
          -15.197339058 3.0614926815 7.687628746 -16.560064316 -0.83766746521 16
          -15.642704964 -1.367305398 16 -14.725343704 -1.8969433308 16
          -13.541354179 -2.7553267479 16 -12.62399292 -3.2849645615 16
          -16.560064316 0.60570842028 16 -12.959306717 3.3992118835 16
          -13.876666069 2.86957407 16 -14.794025421 2.339936018 16
          -15.642704964 1.1353464127 16 -8.170042038 0.92850244045 16
          -9.0860157013 1.4573400021 16 -10.001989365 1.9861775637 16
          -12.043333054 2.8703742027 16 -8.170042038 -0.51967567205 16
          -11.70802021 -2.7561271191 16 -10.693964958 -2.4484148026 16
          -9.7779922485 -1.9195771217 16 -9.0860157013 -1.0485131741 16
          -13.936138153 -1.0903424025 16 -14.271449089 0.97263085842 16
          -10.680722237 0.50250554085 16 -11.342625618 2.0798563957 16
          -12.722064018 1.3867022991 16 -11.738091469 -1.6410135031 16
          -10.032061577 -0.46223714948 16 -13.570743561 0.18211263418 16
          -12.386752129 -0.67627072334 16 -11.37269783 -0.36855846643 16
          -20.890327454 -1.6349090338 18.750001907 -14.243725777 -5.0397973061 18.740903854
          -15.596800804 -4.2585997581 18.809623718 -18.091970444 -2.33517766 18.750001907
          -6.9277191162 -2.5893602371 18.750001907 -8.8632450104 -3.4189536572 19.032819748
          -9.3775043488 -2.3055009842 19.032819748 -10.080552101 -4.1217670441 19.032819748
          -10.88709259 -4.9585790634 18.877033234 -1.0801674128 -1.7236846685 18.750001907
          -5.0531730652 -1.6166095734 18.750001907 -1.1718827486 1.5 18.663421631
          -1.0801674128 -0.5626103878 18.763074875 -5.0531730652 1.3833905458 18.750001907
          -10.860321045 5.1423149109 18.958658218 -8.3576984406 3.5844078064 18.741521835
          -6.3175783157 1.8567225933 18.750001907 -17.124631882 3.0174813271 19.036474228
          -16.043052673 3.7825644016 19.036474228 -13.868950844 5.2347583771 19.05831337
          -22.062259674 1.365090847 18.662960052 -23.48840332 -1.6349090338 18.750001907
          -23.48840332 -0.0027679873165 18.568429947 -23.700962067 1.6321409941 18.568429947
          -19.45788765 -1.5761066675 18.750001907 -12.92158699 -5.0945334435 18.740903854
          -16.69262886 -3.1430883408 18.809623718 -6.7452468872 -1.8381546736 19.007457733
          -6.6022672653 -0.45476406813 19.007457733 -8.4768133163 -1.4275145531 19.007457733
          -10.819940567 -3.2215657234 19.032819748 -2.4938769341 -1.7236846685 18.570240021
          -3.8688063622 -1.6166095734 18.570240021 -2.2520501614 1.2763154507 18.663421631
          -3.6269795895 1.3833905458 18.663421631 -9.7256832123 4.3742141724 18.958658218
          -12.861615181 5.8163433075 18.750001907 -11.925052643 5.7570366859 18.750001907
          -7.5367870331 2.5606331825 18.741521835 -19.45788765 1.4238934517 18.750001907
          -18.477407455 2.2364554405 18.750001907 -14.61948967 3.4472231865 19.076055527
          -13.737201691 4.153588295 19.076055527 -14.5928936 4.85131073 19.076055527
          -20.890327454 1.365090847 18.750001907 -12.255316734 -3.6643302441 18.994588852
          -12.740912437 -2.3620214462 18.994588852 -13.577455521 -3.6095941067 18.994588852
          -14.673284531 -2.4940829277 18.994588852 -17.190048218 -1.5568656921 18
          -17.575483322 0.014767600223 18 -18.555965424 -0.79779458046 18
          -7.8666725159 0.018567990512 19.007457733 -11.30553627 -1.919257164 19.032819748
          -10.741548538 3.0041165352 18.99281311 -11.168068886 1.750105381 18.99281311
          -9.6069097519 2.2360160351 18.99281311 -12.790277481 3.8282513618 19.012857437
          -12.280234337 2.5149345398 19.012857437 -11.853713036 3.7689459324 19.012857437
          -10.098114967 0.96864193678 18.99281311 -8.7859983444 1.2122409344 18.99281311
          -16.161048889 1.5832600594 19.00658989 -14.894194603 1.0932877064 19.00658989
          -15.079469681 2.3483433723 19.00658989 -13.672566414 3.1218864918 19.012857437
          -13.791866302 -1.4124219418 18.994588852 -15.775611877 0.011626722291 19.00658989
          -9.1787891388 -0.22503104806 19.007457733 -10.079479218 -1.1030173302 19.032819748
          -13.861111641 0.77013605833 18.99912262 -12.654054642 1.4182395935 18.99912262
          -14.046384811 2.0251915455 18.99912262 -12.810155869 -0.17946349084 18.99912262
          -10.655405045 -0.029090454802 18.981132507 -11.725358963 0.75237286091 18.981132507
          -11.881461143 -0.84533029795 18.981132507 -4.9632387161 -1.430778265 1.25
          -4.7030997276 -1.756367445 4.375 -4.7030997276 -1.756367445 3.125
          -3.5171766281 -1.756367445 3.3580091 -4.691781044 -1.7496544123 6.875
          -4.691781044 -1.7496544123 5.625 -3.4082512856 -1.7496544123 6.0552473068
          -4.7810473442 -1.8566405773 9.3750009537 -4.7810473442 -1.8566405773 8.125
          -3.6810257435 -1.8566405773 8.4436903 -4.5767197609 -1.6191289425 11.875
          -4.5767197609 -1.6191289425 10.625 -3.2848918438 -1.6191289425 10.682368279
          -4.5425362587 -1.5761715174 14.375 -4.5425362587 -1.5761715174 13.125
          -3.074600935 -1.5761715174 14.143350601 -4.6851878166 -1.7355467081 16.875001907
          -4.6851878166 -1.7355467081 15.625 -3.500821352 -1.7355467081 16.695240021
          -1.4137096405 -1.8389258385 17.333314896 -1.1301409006 -1.5013477802 13.532737732
          -1.306248188 -1.5000766516 10.062102318 -0.98154634237 -1.9833101034 8.2314300537
          -0.98154634237 -1.9833101034 9.4814300537 -2.4796009064 -1.9833101034 8.5501194
          -1.3145465851 -1.5000002384 5.4307322502 -1.4121531248 -1.5 2.7331438065
          -3.777315855 -1.430778265 1.4830088615 -3.4195699692 -1.756367445 4.8052473068
          -3.5917592049 -1.7496544123 7.1936898232 -3.4892191887 -1.8566405773 9.4323682785
          -3.2705307007 -1.6191289425 11.84510994 -3.2363467216 -1.5761715174 13.09510994
          -3.2172527313 -1.7355467081 15.393348694 -1.2990381718 -1.5 1.2501347065
          -1.1301409006 -1.8389258385 16.031423569 -1.2918868065 -1.5013477802 12.48449707
          -1.2918868065 -1.5000766516 11.224843025 -2.28779459 -1.9833101034 9.5387983322
          -2.2960929871 -1.9833101034 7.4116773605 -1.4121531248 -1.5000002384 3.9834942818
          -10.162874222 -4.169295311 17.909851074 -12.022080421 -5.6138648987 18.750001907
          -12.49792099 -5.9190411568 16.75 -12.49792099 -5.9190411568 15.500000954
          -11.297660828 -5.2260704041 15.570988655 -12.49792099 -5.9190411568 14.299999237
          -12.49792099 -5.9190411568 13.050001144 -11.170262337 -5.1525173187 13.266329765
          -12.49792099 -5.9190411568 11.850000381 -12.49792099 -5.9190411568 10.600000381
          -11.402967453 -5.2868690491 10.806031227 -12.49792099 -5.9190411568 9.3999996185
          -12.49792099 -5.9190411568 8.1499996185 -11.26656723 -5.2081184387 8.2559576035
          -12.49792099 -5.9190411568 6.9500007629 -12.49792099 -5.9190411568 5.6999998093
          -11.26656723 -5.2081184387 7.0559577942 -12.49792099 -5.9190411568 4.5
          -12.49792099 -5.9190411568 3.2500002384 -11.350465775 -5.2565579414 3.399394989
          -12.046278 -5.7115907669 1.25 -8.4434719086 -3.620953083 0.93736088276
          -7.7369737625 -3.2543621063 0.96158182621 -6.5196657181 -2.5515489578 0.96158182621
          -7.759642601 -3.2674500942 1.898942709 -6.5196657181 -2.5515489578 2.2115819454
          -6.0980758667 -2.2240891457 3.2500002384 -6.0980758667 -2.2240891457 4.5
          -7.1734447479 -2.844953537 4.3075537682 -6.0980758667 -2.2240891457 5.6999998093
          -6.0980758667 -2.2240891457 6.9500007629 -7.2506356239 -2.8895199299 6.9670987129
          -6.0980758667 -2.2240891457 8.1499996185 -6.0980758667 -2.2240891457 9.3999996185
          -7.2506356239 -2.8895199299 8.1670980453 -6.0980758667 -2.2240891457 10.600000381
          -6.0980758667 -2.2240891457 11.850000381 -7.3526506424 -2.948417902 10.636594772
          -6.0980758667 -2.2240891457 13.050001144 -6.0980758667 -2.2240891457 14.299999237
          -7.3196167946 -2.9293460846 13.065987587 -6.0980758667 -2.2240891457 15.500000954
          -6.0980758667 -2.2240891457 16.75 -7.2341089249 -2.8799777031 16.609977722
          -8.0637521744 -3.2452487946 18.609977722 -8.7819690704 -3.3720300198 17.642795563
          -11.362934113 -5.2637557983 16.877033234 -11.297660828 -5.2260704041 14.370988846
          -11.170262337 -5.1525173187 12.066329956 -11.402967453 -5.2868690491 9.6060304642
          -11.049812317 -5.0829749107 5.920964241 -10.898822784 -5.0491075516 1.3993952274
          -11.049812317 -5.0829749107 4.7209639549 -9.7079639435 -4.3510074615 1.3993952274
          -7.5950345993 -3.1724133492 3.2691354752 -7.1734447479 -2.844953537 5.5075531006
          -7.3526506424 -2.948417902 9.4365940094 -7.3196167946 -2.9293460846 11.865987778
          -7.4446768761 -3.0015492439 14.150224686 -7.4446768761 -3.0015492439 15.350225449
          -9.0660562515 -3.9376533031 16.609977722 -10.446959496 -4.7349185944 16.877033234
          -10.381688118 -4.6972327232 15.570988655 -10.321746826 -4.6626262665 14.338111877
          -10.194349289 -4.5890731812 13.233451843 -9.2166843414 -4.0246181488 14.117346764
          -10.14461422 -4.5603580475 11.926670074 -10.377316475 -4.6947102547 10.666371346
          -9.0418872833 -3.9236998558 11.726327896 -10.528770447 -4.7821516991 9.569858551
          -10.392371178 -4.7034015656 8.2197856903 -9.2263755798 -4.030213356 9.4004220963
          -9.4945077896 -4.1850194931 7.0898003578 -9.2777519226 -4.0598759651 5.9548068047
          -8.2264976501 -3.452933073 7.0009412766 -10.133838654 -4.5541377068 4.7209639549
          -10.434493065 -4.7277202606 3.399394989 -9.0053920746 -3.9026284218 4.3075537682
          -9.1700000763 -3.9976654053 2.937361002 -8.1493053436 -3.4083666801 5.5413961411
          -8.275806427 -3.4814023972 8.3083229065 -8.3778219223 -3.5403008461 9.5778179169
          -9.5438184738 -4.2134890556 8.3971824646 -9.074921608 -3.9427719116 10.496932983
          -9.0916242599 -3.9524147511 13.033111572 -9.2766237259 -4.0592246056 15.350225449
          -18.901924133 -2.2216877937 16.75 -18.901924133 -2.2216877937 15.500000954
          -17.839481354 -2.8350896835 15.359972 -18.901924133 -2.2216877937 14.299999237
          -18.901924133 -2.2216877937 13.050001144 -17.839481354 -2.8350896835 14.159971237
          -18.901924133 -2.2216877937 11.850000381 -18.901924133 -2.2216877937 10.600000381
          -17.975452423 -2.7565875053 11.561130524 -18.901924133 -2.2216877937 9.3999996185
          -18.901924133 -2.2216877937 8.1499996185 -17.680856705 -2.9266717434 9.2344150543
          -18.901924133 -2.2216877937 6.9500007629 -18.901924133 -2.2216877937 5.6999998093
          -18.022186279 -2.7296042442 5.6963119507 -18.901924133 -2.2216877937 4.5
          -18.901924133 -2.2216877937 3.2500002384 -18.022186279 -2.7296042442 4.4963121414
          -18.077241898 -2.5068335533 1.25 -16.915866852 -3.1773533821 1.2117595673
          -14.242933273 -4.9604153633 1.1255578995 -13.397427559 -5.3997097015 16.740903854
          -13.752479553 -5.1947207451 14.249126434 -13.574286461 -5.2976007462 10.409490585
          -13.574286461 -5.2976007462 9.2094907761 -13.479269981 -5.352458477 6.6180491447
          -13.626414299 -5.2675051689 3.1255578995 -13.114439011 -5.6119513512 1.25
          -17.50258255 -3.0295982361 16.809623718 -17.975452423 -2.7565875053 12.761130333
          -17.680856705 -2.9266717434 10.43441391 -17.386142731 -3.0968248844 8.0430259705
          -17.386142731 -3.0968248844 6.8430256844 -17.740550995 -2.8922078609 3.2117595673
          -15.604988098 -4.1740322113 1.2117595673 -13.752479553 -5.1947207451 15.44912529
          -14.063235283 -5.0153064728 12.927226067 -14.063235283 -5.0153064728 11.727226257
          -13.479269981 -5.352458477 7.8180484772 -13.479269981 -5.352458477 5.4180488586
          -14.036977768 -5.0304670334 4.3430113792 -14.314786911 -4.870071888 16.740903854
          -15.667862892 -4.0888743401 16.809623718 -14.669839859 -4.6650829315 15.44912529
          -16.004760742 -3.8943653107 15.359972 -16.965881348 -3.3394625187 14.272502899
          -17.10185051 -3.2609605789 12.873661041 -15.94171524 -3.9307656288 13.039756775
          -16.843877792 -3.409901619 11.691955566 -16.549282074 -3.5799860954 10.56524086
          -15.683740616 -4.079706192 11.858052254 -15.926401138 -3.939606905 9.3620071411
          -15.631686211 -4.1097598076 8.1706180573 -14.571910858 -4.7216219902 9.3370838165
          -16.42215538 -3.6533823013 6.916639328 -17.058200836 -3.2861614227 5.7699255943
          -15.825070381 -3.9981100559 5.6166243553 -17.104827881 -3.2592420578 4.4963121414
          -16.823188782 -3.4218456745 3.2117595673 -15.871696472 -3.971190691 4.3430113792
          -15.90582943 -3.9514839649 3.2117595673 -14.543773651 -4.7378673553 3.1255578995
          -14.95433712 -4.500828743 4.3430113792 -15.630958557 -4.110180378 14.361657143
          -14.416059494 -4.8116030693 10.453047752 -14.905008316 -4.5293087959 11.770781517
          -15.77054882 -4.0295877457 10.477971077 -14.476894379 -4.7764797211 7.945640564
          -14.751350403 -4.6180224419 5.5961141586 -14.19364357 -4.9400148392 6.6711521149
          -15.348436356 -4.2732949257 6.8961286545 -23.812316895 -1.3678588867 17.066432953
          -23.710079193 -1.6937924623 14.255208015 -23.701553345 -1.5083835125 11.863179207
          -23.701015472 -1.5003569126 9.376625061 -23.701290131 -1.4986698627 6.8870782852
          -23.70772934 -1.4772734642 4.4231977463 -23.910804749 -1.5 0.91268479824
          -22.828811646 -1.7214312553 0.91268479824 -19.941108704 -1.6012408733 1.25
          -20.419887543 -1.6152868271 15.625 -20.419887543 -1.6152868271 16.875001907
          -21.830282211 -1.6152868271 16.623003006 -20.313999176 -1.7444168329 13.125
          -20.313999176 -1.7444168329 14.375 -21.622154236 -1.7444168329 13.868607521
          -20.304002762 -1.7592146397 10.625 -20.304002762 -1.7592146397 11.875
          -21.603630066 -1.7592146397 11.290211678 -20.315921783 -1.2545974255 8.125
          -20.315921783 -1.2545974255 9.3750009537 -21.615009308 -1.2545974255 8.7703170776
          -20.303565979 -1.7565070391 5.625 -20.303565979 -1.7565070391 6.875
          -21.602933884 -1.7565070391 6.2800569534 -20.310079575 -1.7425340414 3.125
          -20.310079575 -1.7425340414 4.375 -21.615884781 -1.7425340414 3.8370628357
          -22.300720215 -1.6349090338 18.498003006 -23.812316895 -1.6937924623 15.7596035
          -23.710079193 -1.5083835125 13.19157505 -23.701553345 -1.5003569126 10.646519661
          -23.701015472 -1.4986698627 8.1273384094 -23.701290131 -1.4772734642 5.616191864
          -23.70772934 -1.1610742807 3.1989881992 -23.910804749 -1.1610742807 2.1496100426
          -21.449987411 -1.6012408733 0.91268479824 -21.728042603 -1.6152868271 15.118607521
          -21.61362648 -1.7444168329 12.540210724 -21.603090286 -1.7592146397 10.020317078
          -21.602653503 -1.7565070391 7.5203170776 -21.609371185 -1.7565070391 5.0870628357
          -21.818958282 -1.7425340414 2.7876849174 -23.700962067 1.8389258385 1.2369252443
          -23.699502945 1.8389258385 3.8129994869 -23.699502945 1.5013302565 6.3080954552
          -23.700826645 1.4996432066 9.1726150513 -23.700941086 1.4916167259 11.726608276
          -23.921489716 1.8850909472 13.425761223 -23.921489716 0.1912984401 14.437361717
          -23.921489716 1.8850909472 14.675760269 -23.675647736 1.6321409941 16.193851471
          -23.699502945 1.5227265358 5.0372085571 -23.700826645 1.5013302565 7.9233293533
          -23.700941086 1.4996432066 10.50994873 -23.921489716 0.37670743465 13.373728752
          -23.921489716 0.51723200083 15.744190216 -23.918010712 -1.7214312553 1.25
          -23.918010712 0.11749440432 1.2369252443 -19.941108704 1.3987590075 1.25
          -21.070610046 1.3987590075 1.1062501669 -20.310079575 1.2574659586 4.375
          -20.310079575 1.2574659586 3.125 -21.439580917 1.2574659586 2.9812502861
          -20.303565979 1.2434930801 6.875 -20.303565979 1.2434930801 5.625
          -21.601144791 1.2434930801 5.7010746002 -20.315921783 1.7454025745 9.3750009537
          -20.315921783 1.7454025745 8.125 -21.61482048 1.7454025745 8.5663080215
          -20.304002762 1.2407853603 11.875 -20.304002762 1.2407853603 10.625
          -21.6030159 1.2407853603 11.153640747 -20.313999176 1.2555832863 14.375
          -20.313999176 1.2555832863 13.125 -21.61272049 1.2555832863 13.588308334
          -20.419887543 1.3847131729 16.875001907 -20.419887543 1.3847131729 15.625
          -21.591819763 1.3847131729 16.787960052 -22.62213707 1.8850909472 13.889069557
          -23.573856354 1.6321409941 17.231388092 -21.607658386 1.2574659586 4.4510741234
          -21.602466583 1.2434930801 7.3163075447 -21.614934921 1.7454025745 9.9036407471
          -21.602724075 1.2407853603 12.338308334 -21.323413849 1.8850909472 14.675760269
          -22.597139359 1.8850909472 14.801183701 -21.693609238 1.3847131729 15.750422478
          -23.531425476 1.8389258385 2.3431754112 -23.700645447 1.4916167259 12.911276817
          -1.0515406132 1.7236119509 1.25 -2.0896759033 1.7236119509 1.3266330957
          -1.0381350517 1.5 2.5767679214 -1.3975309134 1.4999997616 5.242685318
          -1.307231307 1.4999957085 7.9954104424 -1.2995812893 1.4999234676 10.549591064
          -0.97235071659 1.9824551344 14.664135933 -0.97235071659 1.9824551344 13.414135933
          -2.2711057663 1.9824551344 13.882489204 -0.97235071659 1.9824551344 15.914135933
          -2.1442332268 1.9824551344 15.82755661 -4.9632387161 1.5692219734 1.25
          -4.6851878166 1.2644531727 15.625 -4.6851878166 1.2644531727 16.875001907
          -3.3607597351 1.2644531727 15.752258301 -4.5425362587 1.4238286018 13.125
          -4.5425362587 1.4238286018 14.375 -3.2432148457 1.4238286018 13.593353271
          -4.5767197609 1.3808712959 10.625 -4.5767197609 1.3808712959 11.875
          -3.2782249451 1.3808712959 11.169857025 -4.7810473442 1.1433594227 8.125
          -4.7810473442 1.1433594227 9.3750009537 -3.4902026653 1.1433594227 8.6188774109
          -4.691781044 1.2503455877 5.625 -4.691781044 1.2503455877 6.875
          -3.4912352562 1.2503455877 5.8671998978 -4.7030997276 1.2436326742 3.125
          -4.7030997276 1.2436326742 4.375 -3.5025544167 1.2436326742 4.6172003746
          -1.0381350517 1.4999997616 3.8271183968 -1.3975309134 1.4999957085 6.4937334061
          -1.307231307 1.4999234676 9.2486104965 -2.2719318867 1.9824551344 12.708992958
          -2.245998621 1.9824551344 14.79139328 -3.4032976627 1.5692219734 1.3266330957
          -3.2589941025 1.2644531727 16.788421631 -3.2181081772 1.4238286018 14.502258301
          -3.2773985863 1.3808712959 12.343353271 -3.285875082 1.3808712959 9.8688774109
          -3.4009361267 1.2503455877 7.3688769341 -3.1431584358 1.2436326742 3.2016329765
          -0.98154634237 -0.48331427574 8.2329645157 -0.97235071659 0.48110747337 13.428524017
          -0.97235071659 0.45973923802 14.702432632 -1.1718827486 1.1610742807 17.426496506
          -1.1301409006 -1.522715807 14.806646347 -0.98154634237 -0.48338663578 9.486164093
          -1.3145465851 -1.5000044107 6.681781292 -1.0515406132 0.22361190617 1.2501347065
          -1.2995812893 1.4986524582 11.809244156 -1.1718827486 1.477284193 16.201717377
          -12.49792099 5.9190411568 15.500000954 -13.814842224 5.1587157249 15.84147644
          -12.49792099 5.9190411568 16.75 -12.49792099 5.9190411568 13.050001144
          -13.613495827 5.2749633789 13.138924599 -12.49792099 5.9190411568 14.299999237
          -12.49792099 5.9190411568 10.600000381 -13.613495827 5.2749633789 11.938924789
          -12.49792099 5.9190411568 11.850000381 -12.49792099 5.9190411568 8.1499996185
          -13.73004818 5.2076716423 8.2502002716 -12.49792099 5.9190411568 9.3999996185
          -12.49792099 5.9190411568 5.6999998093 -13.645910263 5.2562494278 5.5821156502
          -12.49792099 5.9190411568 6.9500007629 -12.49792099 5.9190411568 3.2500002384
          -13.645910263 5.2562494278 4.3821158409 -12.49792099 5.9190411568 4.5
          -14.181475639 4.7415251732 0.96659892797 -12.925171852 5.4668521881 1.25
          -17.994592667 2.977865696 1.25 -15.598970413 4.3609781265 0.96659892797
          -18.901924133 2.2216877937 4.5 -17.767856598 2.8764429092 3.4683980942
          -18.901924133 2.2216877937 3.2500002384 -18.901924133 2.2216877937 6.9500007629
          -17.658052444 2.9398367405 6.1848425865 -18.901924133 2.2216877937 5.6999998093
          -18.901924133 2.2216877937 9.3999996185 -17.726808548 2.9001407623 8.7389144897
          -18.901924133 2.2216877937 8.1499996185 -18.901924133 2.2216877937 11.850000381
          -17.696702957 2.9175224304 11.253631592 -18.901924133 2.2216877937 10.600000381
          -18.901924133 2.2216877937 14.299999237 -17.657987595 2.9398741722 13.689538002
          -18.901924133 2.2216877937 13.050001144 -18.901924133 2.2216877937 16.75
          -17.880147934 2.8116109371 16.004188538 -18.901924133 2.2216877937 15.500000954
          -14.382920265 4.9725389481 18.134366989 -15.674734116 4.2267103195 18.112527847
          -13.505254745 5.3374567032 17.05831337 -13.814842224 5.1587157249 14.641476631
          -13.885308266 5.1180324554 10.646533966 -13.885308266 5.1180324554 9.4465341568
          -13.73004818 5.2076716423 7.0501999855 -13.754223824 5.1937141418 2.9665989876
          -16.860521317 3.632620573 1.4683983326 -17.658052444 2.9398367405 4.9848423004
          -17.726808548 2.9001407623 7.5389146805 -17.726808548 2.9001407623 9.938914299
          -18.044988632 2.7164406776 12.905363083 -16.801052094 3.4346270561 13.544901848
          -16.839767456 3.4122753143 12.30899334 -17.880147934 2.8116109371 14.804189682
          -17.54914856 3.0027132034 17.036474228 -14.692507744 4.7937984467 16.91753006
          -14.469919205 4.7805066109 13.255867958 -15.762332916 4.0343313217 13.806481361
          -14.671267509 4.6642584801 14.758419991 -14.793010712 4.5939698219 10.69943428
          -15.852326393 3.9823741913 11.306529999 -14.521198273 4.7509012222 11.991825104
          -14.740362167 4.6243672371 8.4225063324 -15.985044479 3.9057497978 8.9112205505
          -14.8956213 4.5347270966 9.6188402176 -14.502765656 4.7615427971 5.7247376442
          -15.762829781 4.0340442657 6.3274645805 -14.586905479 4.7129654884 7.1928219795
          -14.671583176 4.6640758514 2.9665989876 -15.933135986 3.9357185364 3.4683980942
          -14.563269615 4.7266111374 4.3821158409 -16.740694046 3.4694745541 4.9848423004
          -15.480630875 4.1969733238 4.3821158409 -16.850494385 3.4060807228 3.4683980942
          -15.831585884 3.9943482876 7.6815366745 -16.686645508 3.5006799698 11.078349113
          -15.62733078 4.1122760773 10.471252441 -16.716751099 3.4832980633 9.7636327744
          -15.813611984 4.0047259331 12.542438507 -16.962787628 3.3412489891 16.004188538
          -15.649562836 4.0994400978 15.84147644 -16.740629196 3.4695124626 14.889539719
          -16.631788254 3.5323514938 17.036474228 -6.0980758667 2.2240891457 15.500000954
          -7.115087986 2.8112611771 15.322015762 -6.0980758667 2.2240891457 16.75
          -6.0980758667 2.2240891457 13.050001144 -7.115087986 2.8112611771 14.122014999
          -6.0980758667 2.2240891457 14.299999237 -6.0980758667 2.2240891457 10.600000381
          -7.3683490753 2.9574811459 11.813012123 -6.0980758667 2.2240891457 11.850000381
          -6.0980758667 2.2240891457 8.1499996185 -7.048412323 2.7727661133 8.2369537354
          -6.0980758667 2.2240891457 9.3999996185 -6.0980758667 2.2240891457 5.6999998093
          -7.048412323 2.7727661133 7.0369539261 -6.0980758667 2.2240891457 6.9500007629
          -6.0980758667 2.2240891457 3.2500002384 -7.3814678192 2.9650557041 3.3057129383
          -6.0980758667 2.2240891457 4.5 -6.6382575035 2.3634934425 1.25
          -10.550590515 4.9797768593 1.0524843931 -9.1922206879 4.1955223083 1.3057129383
          -11.137020111 5.1333246231 15.634910583 -11.442264557 5.3095579147 13.015176773
          -11.442264557 5.3095579147 11.815176964 -11.388008118 5.2782325745 9.4318447113
          -11.428154945 5.3014116287 5.5905337334 -11.428154945 5.3014116287 4.3905334473
          -12.276912689 5.2441620827 2.2586188316 -11.266748428 4.660943985 2.061103344
          -12.276912689 5.2441620827 1.0086188316 -7.317284584 2.9279994965 16.741521835
          -7.3683490753 2.9574811459 13.013010979 -7.599697113 3.0910503864 10.622634888
          -7.7513074875 3.1785824299 8.4210929871 -8.3025922775 3.496866703 9.6067733765
          -6.8009705544 2.6299052238 9.5841388702 -7.5021314621 3.0347208977 5.929432869
          -7.5021314621 3.0347208977 4.7294330597 -7.9216489792 3.104460001 1.3057129383
          -11.433190346 5.304318428 16.958658218 -11.137020111 5.1333246231 14.434911728
          -11.388008118 5.2782325745 10.631845474 -11.188159943 5.1628513336 8.2702054977
          -11.188159943 5.1628513336 7.0702052116 -11.487756729 5.3358225822 3.0524845123
          -9.1492319107 3.9856746197 16.741521835 -10.221046448 4.6044869423 15.634910583
          -10.517215729 4.7754807472 16.958658218 -8.0310621262 3.3400986195 15.322015762
          -9.3050727844 4.0756497383 15.634910583 -8.233259201 3.4568369389 16.741521835
          -8.3468990326 3.5224475861 12.971262932 -9.367650032 4.1117782593 14.393163681
          -8.0936384201 3.3762273788 14.080266953 -9.4586324692 4.1643066406 10.578706741
          -10.553279877 4.7963018417 11.771248817 -9.2272844315 4.0307378769 11.769083977
          -8.6383666992 3.690726757 8.1734771729 -10.030194283 4.4942989349 8.2067270279
          -9.1896514893 4.0090107918 9.3591575623 -8.302236557 3.4966621399 6.0440673828
          -9.2403459549 4.0382795334 7.1848387718 -7.8485193253 3.2347073555 7.1515874863
          -9.2134151459 4.0227308273 3.3057129383 -10.512181282 4.7725744247 4.3905334473
          -9.3340787888 4.0923957825 4.7294330597 -10.571784019 4.8069853783 3.0524845123
          -10.443324089 4.7328190804 14.422736168 -9.4225730896 4.143488884 13.000835419
          -10.748568535 4.909052372 13.003002167 -10.499023438 4.7649769783 10.587916374
          -10.230041504 4.6096806526 9.3683662415 -10.306707382 4.6539440155 6.9815897942
          -9.3685998917 4.112326622 5.8408174515 -10.546702385 4.7925047874 5.5019187927
          -7.5553679466 -1.5066040754 0.96158182621 -18.644077301 1.905262351 1.25
          -11.915008545 4.8836345673 1.0524843931 -10.430095673 3.0468878746 0.98253452778
          -8.9347257614 3.2951452732 0.98253452778 -9.1595230103 1.9558258057 0.98253452778
          -6.2318539619 -1.9550551176 1.25 -2.4636938572 -1.2763880491 1.4830088615
          -12.35846138 -3.8987972736 1.0573433638 -12.812184334 -5.4040851593 1.0573433638
          -13.426623344 -3.7991580963 1.0573433638 -8.5270090103 -2.4566009045 0.96158182621
          -15.996610641 -3.1786191463 0.980879426 -15.487312317 -1.9826395512 0.980879426
          -14.176434517 -2.9793186188 0.980879426 -22.44943428 1.2785686255 1.1062501669
          -16.154100418 1.5541876554 0.97218328714 -15.504612923 2.6267907619 0.97218328714
          -14.676194191 1.5212036371 0.97218328714 -14.087116241 3.0073382854 0.97218328714
          -12.702084541 3.494136095 1.0086188316 -11.337666512 3.5902786255 1.0086188316
          -11.802471161 2.3283569813 1.0086188316 -10.894900322 1.7849662304 0.98253452778
          -7.5401821136 1.5875825882 2 -5.8651628494 0.79331088066 2
          -7.1337785721 0.26903399825 2 -12.858271599 -2.5609345436 1.0573433638
          -10.304708481 -2.4461522102 1.062820673 -11.495566368 -3.1442523003 1.062820673
          -11.995377541 -1.8063892126 1.062820673 -8.8402090073 -1.2610368729 0.96158182621
          -17.175315857 -1.728521347 2 -19.03918457 -0.82292884588 2
          -17.742153168 -0.3164255619 2 -13.608083725 -1.7410947084 0.980879426
          -16.054149628 -0.57054370642 0.980879426 -14.576244354 -0.60352766514 0.980879426
          -13.572516441 0.86576557159 1.0299910307 -12.983438492 2.3519003391 1.0299910307
          -12.083826065 1.1861212254 1.0299910307 -10.037961006 0.8828446269 0.98253452778
          -7.9617714882 -0.1880556643 0.96158182621 -10.617908478 -1.2505881786 1.062820673
          -12.604355812 -0.27180153131 1.0299910307 -11.226886749 0.28399941325 1.0299910307
          -8.4181060791 3.5635585785 4.7294330597 -8.6094303131 3.6740205288 10.482337952
          -8.3780832291 3.5404515266 11.672714233 -17.742153168 1.126950264 2
          -16.409883499 0.1665161252 2 -13.727463722 -3.5766091347 3.057343483
          -12.810105324 -4.1062474251 3.057343483 -13.073874474 -2.9901325703 3.057343483
          -15.394635201 -2.227132082 2.9808795452 -14.477276802 -2.7567696571 2.9808795452
          -14.979725838 -1.2145522833 2.9808795452 -16.31199646 -1.6974939108 2.9808795452
          -8.3375635147 -2.3044757843 2.9615819454 -7.4215898514 -1.7756381035 2.9615819454
          -8.70038414 -1.1672354937 2.9615819454 -11.031236649 -2.8228645325 3.0628204346
          -10.115262985 -2.2940270901 3.0628204346 -10.478084564 -1.1567867994 3.0628204346
          -11.894130707 -3.5774097443 3.057343483 -7.4215898514 -0.32746002078 2.9615819454
          -11.358860016 3.4174871445 3.0086188316 -12.274833679 3.9463248253 3.0086188316
          -11.854370117 2.5898864269 3.0086188316 -9.5353155136 2.3452589512 2.9825344086
          -10.451289177 2.874096632 2.9825344086 -10.946798325 2.0464961529 2.9825344086
          -8.6193418503 1.8164215088 2.9825344086 -9.8981361389 0.9766459465 2.9825344086
          -15.494585991 2.4002509117 2.9721832275 -16.411945343 1.8706132174 2.9721832275
          -15.079675674 0.91017895937 2.9721832275 -14.577226639 2.9298892021 2.9721832275
          -14.368370056 1.7950428724 2.9721832275 -13.192193985 3.4166865349 3.0086188316
          -13.823685646 -2.1702930927 2.9808795452 -11.787099838 -1.3524236679 3.0628204346
          -12.210979462 -2.2355873585 3.0628204346 -12.983336449 2.2818403244 3.0086188316
          -13.399806023 -1.2871294022 2.9808795452 -12.39607811 0.18216393888 3.0299906731
          -11.087062836 0.37780079246 3.0299906731 -12.135724068 1.4476509094 3.0299906731
          -13.264690399 1.1396048069 3.0299906731 -13.975996971 0.25474095345 3.0299906731
          -5.4444599152 -0.80026060343 14.875000954 -5.4444599152 0.64791750908 14.875000954
          -5.4444599152 0.64791750908 13.675001144 -5.5937047005 0.47443467379 6.3249998093
          -5.5937047005 0.47443467379 5.125 -5.5937047005 -0.97374343872 6.3249998093
          -5.6829714775 0.36744850874 8.7750005722 -5.6829714775 0.36744850874 7.5749998093
          -5.6829714775 -1.0807294846 7.5749998093 -5.6829714775 0.36744850874 9.9750003815
          -5.6829714775 -1.0807294846 8.7750005722 -5.4786438942 0.60496020317 12.424999237
          -5.4786438942 0.60496020317 11.224999428 -5.4786438942 -0.84321796894 11.224999428
          -5.5937047005 -0.97374343872 5.125 -5.4444599152 -0.80026060343 13.675001144
          -5.4786438942 -0.84321796894 12.424999237 -5.6829714775 -1.0807294846 9.9750003815
          -8.3606510162 -3.5303866863 15.350225449 -8.1334590912 -3.3992176056 14.163984299
          -8.008398056 -3.3270142078 13.079748154 -8.2264146805 -3.4528856277 10.674589157
          -8.0894184113 -3.3737909794 4.3075537682 -9.2178649902 -4.0253000259 4.7209639549
          -10.360694885 -4.6851139069 5.9086074829 -10.577450752 -4.8102574348 7.0436010361
          -8.1933803558 -3.4338135719 11.903982162 -9.1243610382 -3.9713149071 8.1309261322
          -16.922122955 -3.3647274971 15.359972 -14.557870865 -4.7297282219 14.195052147
          -14.036977768 -5.0304670334 5.5430116653 -14.868626595 -4.5503134727 12.873153687
          -16.880390167 -3.3888206482 9.5012998581 -16.585676193 -3.5589740276 8.3099107742
          -17.174985886 -3.2187364101 10.628015518 -19.412075043 0.47727113962 14.875000954
          -19.412075043 -0.96610474586 14.875000954 -19.412075043 0.47727113962 13.675001144
          -19.401641846 -0.9781948328 5.125 -19.401641846 0.46518099308 5.125
          -19.401641846 0.46518099308 6.3249998093 -19.41399765 -0.4762853682 8.7750005722
          -19.41399765 -0.4762853682 7.5749998093 -19.41399765 0.96709060669 8.7750005722
          -19.402076721 -0.98090261221 11.224999428 -19.402076721 -0.98090261221 10.025000572
          -19.402076721 0.46247330308 11.224999428 -19.402076721 -0.98090261221 12.424999237
          -19.402076721 0.46247330308 12.424999237 -19.412075043 -0.96610474586 13.675001144
          -19.402076721 0.46247330308 10.025000572 -19.41399765 0.96709060669 7.5749998093
          -19.401641846 -0.9781948328 6.3249998093 -14.73220253 4.6290779114 15.84147644
          -15.82326889 3.9991502762 14.889539719 -17.696702957 2.9175224304 12.453630447
          -16.81937027 3.4240498543 8.6839208603 -16.801990509 3.4340856075 6.0668129921
          -15.823334694 3.999112606 4.9848423004 -16.870744705 3.3943893909 7.4208850861
          -15.508638382 4.1808023453 12.994287491 -15.574689865 4.1426668167 8.1952066422
          -16.272687912 -2.0865037441 18 -15.750112534 -0.95115727186 18
          -13.648515701 -3.439868927 16.994588852 -14.565876961 -2.9102311134 16.994588852
          -14.043300629 -1.7748845816 16.994588852 -12.731157303 -3.969506979 16.994588852
          -12.85931015 -2.6332678795 16.994588852 -16.58556366 0.12511658669 17.00658989
          -16.58556366 1.5684925318 17.00658989 -15.145627975 0.73082506657 17.00658989
          -13.343942642 3.401311636 17.012857437 -12.426582336 3.930949688 17.012857437
          -12.890047073 2.708958149 17.012857437 -15.668203354 2.0981302261 17.00658989
          -14.750844002 2.6277682781 17.00658989 -14.29695034 1.9354147911 17.00658989
          -9.4824705124 2.1084451675 16.99281311 -8.5664968491 1.5796074867 16.99281311
          -9.7365398407 1.0599317551 16.99281311 -10.398444176 2.6372826099 16.99281311
          -11.510608673 3.4021117687 17.012857437 -7.6471705437 0.38593447208 17.007459641
          -7.6471705437 -1.0622435808 17.007459641 -8.8172130585 -0.13374117017 17.007459641
          -11.815184593 -3.4406690598 16.994588852 -9.4638347626 -2.4690673351 17.032817841
          -10.379808426 -2.9979050159 17.032817841 -10.409879684 -1.8827914 17.032817841
          -8.5631446838 -1.5910811424 17.007459641 -11.077176094 1.1536104679 16.99281311
          -12.189340591 1.9184398651 17.012857437 -11.423934937 -2.1905038357 17.032817841
          -9.5091896057 -1.004805088 17.007459641 -12.928554535 -0.45071005821 16.99912262
          -14.112546921 0.40767335892 16.99912262 -12.563160896 0.82174491882 16.99912262
          -13.263866425 1.6122632027 16.99912262 -11.634465218 0.15587815642 16.981132507
          -10.293828011 0.062199436128 16.981132507 -10.985804558 -0.8088645339 16.981132507
          -11.99985981 -1.11657691 16.981132507 -6.7452468872 -1.8381546736 17.757457733
          -20.073928833 -0.1913934648 18.125 -21.506364822 -0.25019586086 18.125
          -13.632743835 -4.7480139732 17.735492706 -15.176857948 -3.2020149231 18
          -16.585220337 -3.5592365265 16.809623718 -3.1672790051 -0.45923131704 18.125
          -4.5422086716 -0.35215619206 18.125 -7.2195014954 1.0808116198 18
          -5.9550971985 0.6074795723 18 -10.251766205 3.8492355347 17.951471329
          -11.79688549 5.2016205788 18.958658218 -8.0404129028 2.1045866013 18
          -16.134712219 3.1278300285 18.04306221 -18.555965424 0.64558124542 18
          -17.575483322 1.4581434727 18 -13.304247856 3.5660324097 18.088911057
          -11.531097412 -2.8750462532 18.0274086 -11.245159149 2.4758660793 18.00566864
          -11.363930702 4.6140642166 17.971513748 -9.2136678696 0.51736390591 18.000270844
          -14.138046265 1.3704574108 18.005710602 -12.731142998 2.1440005302 18.011978149
          -13.035717964 -1.1352522373 17.993709564 -14.868694305 0.13050369918 18
          -9.1950311661 -1.5542954206 18.040277481 -10.671646118 -1.3583548069 18.013952255
          -10.690282822 0.71330451965 17.973945618 -12.176267624 0.38143888116 17.98025322
          -5.6050233841 -0.98045635223 3.875 -4.4701857567 -0.18714550138 1.875
          -4.1987280846 -0.50602173805 5 -4.276676178 -0.60629492998 7.5
          -4.1616148949 -0.4757694006 10 -4.0315713882 -0.31171822548 15
          -5.5871114731 -0.95963573456 16.125 -2.1050233841 -0.256367594 4.3754854202
          -3.0752511024 -0.73296433687 7.6064305305 -3.1645176411 -0.83995050192 8.8564310074
          -3.9231038094 -0.19530037045 12.5 -2.2734334469 -1.9833101034 10.701539993
          -2.9601902962 -0.60243880749 10.106430054 -2.2642376423 -1.0175448656 13.384245872
          -2.1024916172 -1.0175448656 14.43248558 -2.9168105125 0.40628361702 14.039134979
          -1.4137096405 -1.522715807 16.108535767 -2.0871117115 -0.25826257467 15.663295746
          -12.733236313 -5.2673444748 17.744590759 -11.598249435 -4.6120591164 17.871622086
          -12.812184334 -5.4040851593 2.307343483 -11.664729118 -4.7416014671 2.4567387104
          -7.8812799454 -2.4940433502 17.617433548 -9.9373655319 -3.1868159771 2
          -8.254026413 -3.4688277245 2.937361002 -8.1500825882 -3.4088156223 16.609977722
          -19.517963409 -0.83697474003 16.125 -19.408155441 -0.96422201395 3.875
          -16.05254364 -3.1463260651 2.1926391125 -13.940677643 -4.7525491714 2.1829013824
          -14.985818863 -3.9668157101 17.804210663 -14.690489769 -3.9327094555 2.1064374447
          -20.930040359 -0.35970360041 15 -20.814151764 -0.50363141298 12.5
          -20.815637589 -0.011104368605 7.5 -20.816074371 -0.013812039979 10
          -20.809799194 -0.49904105067 5 -22.631570816 -1.1149090528 14.16936779
          -22.73380661 -1.1149090528 15.673763275 -22.912075043 -0.25280022621 13.072968483
          -22.902076721 -0.25957149267 10.606307983 -22.901641846 -0.25517675281 6.8570213318
          -22.901641846 -0.23378036916 5.5861353874 -22.908155441 0.096391670406 3.1119253635
          -20.447340012 -0.34377497435 1.875 -21.939453125 0.26980409026 15.300761223
          -22.908155441 -0.21980749071 4.3361349106 -22.91399765 0.2467328161 8.1070213318
          -22.91399765 0.24504570663 9.3563079834 -22.902076721 -0.26759806275 11.822967529
          -23.017963409 -0.30907925963 15.386600494 -23.017963409 0.016854258254 16.693429947
          -19.408155441 0.47915384173 3.875 -21.833564758 0.14067412913 14.050761223
          -19.517963409 0.60640108585 16.125 -22.622430801 1.8850909472 12.704401016
          -21.823568344 0.12587627769 12.800760269 -22.495347977 1.8850909472 15.838719368
          -5.5871114731 0.48854234815 16.125 -5.6050233841 0.46772170067 3.875
          -2.0937047005 -0.249658674 6.8765335083 -2.2887778282 1.0166900158 8.7253084183
          -2.2811276913 1.0166900158 10.026287079 -2.9509944916 0.36332631111 12.789135933
          -3.0594623089 0.24690842628 15.289135933 -0.98154634237 -0.48465764523 10.745819092
          -2.0937047005 -0.24965462089 5.6254854202 -2.1050233841 -0.25636735559 3.1251347065
          -1.9786436558 -0.12047655135 11.889387131 -1.9786436558 -0.11920551956 10.629734039
          -0.97235071659 0.14352940023 15.927209854 -12.428661346 5.2287869453 17.76285553
          -13.435995102 4.6472020149 18.0711689 -13.533215523 4.5188350677 1.9752178192
          -17.510009766 2.5600171089 1.4683983326 -14.422615051 4.8078184128 17.05831337
          -16.179801941 3.3036801815 2.4405815601 -14.91824913 4.032037735 1.9387823343
          -14.290866852 3.7266483307 17.076055527 -15.714426994 4.0619893074 17.036474228
          -9.0008096695 3.3332989216 2.2882475853 -8.8837814331 3.0594289303 17.734334946
          -8.2974414825 3.4938931465 3.3057129383 -10.359178543 4.1175537109 2.0350189209
          -3.1565639973 -0.032755419612 1.875 -6.286752224 -0.98232722282 0.96158182621
          -10.80183506 -3.9870562553 2.462215662 -21.826164246 -0.46396541595 1.875
          -19.03918457 0.6204470396 2 -17.092668533 2.1995534897 2
          -14.931979179 0.13353212178 2 -13.720212936 1.6424124241 2.0021743774
          -12.335180283 2.1292102337 2.0386099815 -11.146254539 2.7280550003 1.9911532402
          -5.8651628494 -0.65486723185 2 -7.1337785721 -1.1791441441 2
          -12.261474609 -2.8367459774 2.120164156 -13.874178886 -2.7714514732 2.0382230282
          -9.620880127 -2.0926494598 2.02440238 -15.843047142 -1.2455797195 2
          -11.42760849 1.585819602 2.0125255585 -8.818977356 0.74780702591 2
          -9.6974124908 -0.32517415285 2 -12.007556915 -0.54761320353 2.0928115845
          -13.6202631 -0.48231884837 2.0108704567 -5.4786438942 0.60496020317 10.025000572
          -16.257955551 -2.2581591606 2 -9.253537178 -2.8333134651 2.9615819454
          -8.4561548233 2.1164200306 2 -16.17530632 2.7291915417 2
          -13.438858986 2.78464818 1.9808022976 -13.011284828 -2.0169064999 2.0436999798
          -19.401641846 -0.9781948328 7.5250000954 -19.41399765 0.96709060669 9.9750003815
          -13.373506546 4.2562861443 17.076055527 -13.836971283 3.0342948437 17.076055527
          -15.20822525 3.1970107555 17.076055527 -14.711151123 2.7924892902 18.082641602
          -6.2342824936 -0.57370132208 17.132457733 -9.7709569931 -0.48036855459 17.98859024
          -5.9550971985 -0.84069854021 18 -2.0871117115 -0.57447242737 16.888074875
          -13.678068161 2.4693374634 18.075176239 -12.107021332 -1.8011189699 17.975721359
          -11.618977547 1.3791713715 17.991933823 -12.633749008 -1.6774792671 18
          -6.0266132355 -1.307916522 2.836581707 -1.9444599152 -0.077519193292 13.139389038
          -11.128225327 -3.8849160671 2 -14.723941803 0.17311915755 1.9530627728
          -10.818632126 0.051231961697 2.0453550816
        </DataArray>
      </Points>
      <Cells>
        <DataArray type="Int32" Name="connectivity" format="ascii" RangeMin="0" RangeMax="2340">
          1 32 33 79 380 567
          383 444 839 802 32 0
          45 93 381 402 568 841
          461 877 2 33 170 70
          382 569 570 433 801 1412
          3 34 173 209 384 571
          572 741 740 1413 34 35
          173 210 385 573 571 743
          742 1414 35 2 172 70
          386 574 575 744 433 1415
          4 36 175 52 387 576
          577 411 680 1416 36 37
          175 368 388 578 576 1417
          1419 1418 37 3 174 195
          389 579 580 681 683 1420
          5 38 177 54 390 581
          582 414 641 1421 38 4
          176 52 391 583 584 642
          411 1422 6 39 40 244
          392 585 395 916 1423 917
          39 5 177 251 393 582
          586 955 954 1424 7 40
          176 111 394 587 588 484
          915 1425 8 41 179 272
          396 589 590 1052 1053 1426
          41 42 181 273 397 591
          592 1054 1055 1427 42 7
          178 111 398 612 593 1056
          484 1428 9 43 182 258
          399 594 595 991 992 1429
          43 44 183 258 400 596
          597 992 993 1430 44 8
          180 259 401 598 599 994
          995 1431 45 9 170 237
          403 600 601 879 878 1432
          33 32 170 79 567 566
          569 802 839 1433 32 45
          170 230 568 601 566 840
          1435 1434 2 170 171 70
          570 602 603 433 1412 1436
          3 173 174 209 572 604
          579 741 1413 1437 173 35
          172 210 573 575 605 1414
          742 1438 172 2 171 70
          574 603 606 1415 433 1436
          4 175 176 377 577 607
          583 1439 1441 1440 175 37
          174 368 578 580 608 1418
          1419 1442 177 38 176 188
          581 584 609 1443 643 1444
          40 39 177 244 585 586
          610 917 1423 1445 176 40
          177 244 587 610 609 1446
          917 1445 7 176 178 111
          588 611 612 484 1425 1428
          179 41 181 272 589 592
          613 1426 1053 1447 8 179
          180 119 590 614 598 494
          1449 1448 181 42 178 273
          591 593 615 1427 1055 1450
          182 43 183 258 594 597
          616 1429 992 1430 9 182
          171 101 595 617 618 471
          1452 1451 183 44 180 369
          596 599 619 1453 1455 1454
          170 9 171 101 600 618
          602 1456 471 1451 174 173
          185 367 604 620 621 1457
          1459 1458 173 172 185 367
          605 622 620 1459 1460 1458
          172 171 182 30 606 617
          623 1461 1463 1462 176 175
          178 377 607 624 611 1440
          1441 1464 175 174 185 368
          608 621 625 1418 1442 1465
          179 181 187 370 613 626
          627 1466 1468 1467 180 179
          187 348 614 627 628 1469
          1471 1470 181 178 186 370
          615 629 630 1468 1473 1472
          182 183 184 372 616 631
          632 1474 1476 1475 183 180
          187 348 619 628 633 1477
          1469 1470 185 172 184 367
          622 634 635 1458 1460 1478
          172 182 184 372 623 632
          634 1479 1474 1475 178 175
          186 377 624 636 629 1464
          1441 1480 175 185 186 368
          625 637 636 1418 1465 1481
          187 181 186 370 626 630
          638 1467 1468 1472 184 183
          187 378 631 633 639 1482
          1484 1483 185 184 187 378
          635 639 640 1485 1482 1483
          186 185 187 379 637 640
          638 1486 1488 1487 46 53
          10 292 644 412 404 1489
          1130 1129 47 189 46 349
          646 645 405 1490 1492 1491
          48 190 47 350 648 647
          406 1493 1495 1494 49 191
          48 351 650 649 407 1496
          1498 1497 50 192 49 352
          652 651 408 1499 1501 1500
          51 194 50 353 676 654
          409 1502 1504 1503 52 188
          51 354 656 655 410 1505
          1507 1506 53 60 11 118
          658 421 413 1127 968 492
          55 188 54 251 660 659
          415 957 1508 956 56 194
          55 252 662 661 416 961
          1509 958 57 192 56 254
          665 664 417 963 1510 960
          58 191 57 373 678 666
          418 1511 1513 1512 59 190
          58 256 668 667 419 967
          1514 964 60 189 59 257
          670 669 420 969 1515 966
          54 188 38 177 659 643
          641 1421 1443 581 38 188
          52 176 643 656 642 584
          1444 1422 46 189 53 292
          645 657 644 1489 1516 1130
          47 190 189 349 647 671
          646 1490 1517 1492 48 191
          190 350 649 672 648 1493
          1518 1495 49 192 191 351
          651 673 650 1496 1519 1498
          50 193 192 352 653 674
          652 1499 1520 1501 194 193
          50 353 675 653 654 1504
          1521 1503 51 188 194 354
          655 677 676 1506 1507 1522
          53 189 60 257 657 670
          658 1523 1515 969 55 194
          188 251 661 677 660 957
          1524 1508 56 193 194 252
          663 675 662 961 1525 1509
          192 193 56 254 674 663
          664 1510 1526 960 57 191
          192 373 666 673 665 1512
          1513 1527 58 190 191 373
          667 672 678 1511 1528 1513
          59 189 190 256 669 671
          668 967 1529 1514 36 195
          37 368 682 681 388 1417
          1530 1419 3 195 61 174
          683 684 422 579 1420 1531
          61 197 62 29 685 687
          423 1532 1534 1533 62 198
          63 157 686 714 424 1535
          1537 1536 63 199 64 156
          689 688 425 1538 1540 1539
          64 200 65 155 690 692
          426 1541 1543 1542 65 200
          66 154 692 691 427 1544
          1546 1545 66 201 67 26
          694 693 428 1547 1549 1548
          67 68 12 294 695 430
          429 1550 1132 1131 68 203
          69 295 698 697 431 1133
          1551 1134 69 203 10 371
          697 699 432 1552 1554 1553
          10 203 46 371 699 700
          404 1553 1554 1555 46 204
          47 27 702 701 405 1556
          1558 1557 47 205 48 151
          703 705 406 1559 1561 1560
          48 205 49 150 705 704
          407 1562 1564 1563 49 206
          50 149 707 706 408 1565
          1567 1566 50 207 51 148
          709 708 409 1568 1570 1569
          51 196 52 28 711 710
          410 1571 1573 1572 52 196
          36 175 710 679 680 1416
          1574 576 36 196 195 368
          679 712 682 1417 1575 1530
          195 197 61 29 713 685
          684 1576 1534 1532 197 198
          62 157 715 686 687 1577
          1537 1535 198 199 63 156
          716 689 714 1578 1540 1538
          199 200 64 155 717 690
          688 1579 1543 1541 200 202
          66 154 719 718 691 1546
          1580 1545 201 68 67 294
          696 695 693 1581 1132 1550
          66 202 201 26 718 720
          694 1547 1582 1549 68 201
          203 295 696 721 698 1133
          1583 1551 203 204 46 371
          722 702 700 1554 1584 1555
          204 205 47 151 723 703
          701 1585 1561 1559 205 206
          49 150 724 707 704 1564
          1586 1563 206 207 50 149
          725 709 706 1567 1587 1566
          207 208 51 148 727 726
          708 1570 1588 1569 51 208
          196 28 726 728 711 1571
          1589 1573 196 197 195 152
          729 713 712 1590 1592 1591
          197 208 198 318 731 730
          715 1593 1595 1594 198 207
          199 325 733 732 716 1596
          1598 1597 199 206 200 324
          735 734 717 1599 1601 1600
          200 205 202 322 737 736
          719 1602 1604 1603 202 204
          201 145 739 738 720 1605
          1607 1606 201 204 203 145
          738 722 721 1606 1607 1608
          204 202 205 322 739 736
          723 1609 1603 1604 205 200
          206 321 737 734 724 1610
          1612 1611 206 199 207 325
          735 732 725 1613 1597 1598
          207 198 208 318 733 730
          727 1614 1594 1595 208 197
          196 152 731 729 728 1615
          1592 1590 70 211 71 30
          747 746 434 1616 1618 1617
          71 211 72 163 746 748
          435 1619 1621 1620 72 212
          73 162 750 749 436 1622
          1624 1623 73 213 74 161
          752 751 437 1625 1627 1626
          74 214 75 160 754 753
          438 1628 1630 1629 75 214
          76 25 753 755 439 1631
          1633 1632 76 216 13 297
          757 756 440 1634 1635 1136
          13 216 77 297 756 758
          441 1136 1635 1137 77 217
          78 298 760 759 442 1138
          1636 1139 78 217 12 298
          759 761 443 1139 1636 1140
          61 209 3 174 762 741
          422 1531 1437 579 62 209
          61 29 763 762 423 1533
          1637 1532 63 218 62 157
          765 764 424 1536 1638 1535
          64 220 63 156 767 766
          425 1539 1639 1538 65 220
          64 155 768 767 426 1542
          1640 1541 66 221 65 154
          770 769 427 1545 1641 1544
          67 217 66 26 772 771
          428 1548 1642 1547 12 217
          67 298 761 772 429 1140
          1636 1643 209 210 34 173
          773 743 740 1413 1414 571
          210 70 35 172 745 744
          742 1438 1415 575 70 210
          211 30 745 774 747 1616
          1644 1618 211 212 72 163
          775 750 748 1621 1645 1620
          212 213 73 162 776 752
          749 1624 1646 1623 213 215
          74 161 778 777 751 1627
          1647 1626 74 215 214 160
          777 779 754 1628 1648 1630
          214 216 76 25 780 757
          755 1633 1649 1632 216 217
          77 298 781 760 758 1650
          1636 1138 62 218 209 29
          764 782 763 1533 1651 1637
          63 219 218 157 784 783
          765 1536 1652 1638 220 219
          63 156 785 784 766 1639
          1653 1538 65 221 220 155
          769 786 768 1542 1654 1640
          66 222 221 26 788 787
          770 1547 1656 1655 217 222
          66 26 789 788 771 1642
          1656 1547 209 218 210 159
          782 790 773 1657 1659 1658
          210 218 211 159 790 791
          774 1658 1659 1660 211 219
          212 326 793 792 775 1661
          1663 1662 212 219 213 333
          792 794 776 1664 1666 1665
          213 220 215 330 796 795
          778 1667 1669 1668 215 222
          214 331 798 797 779 1670
          1672 1671 214 222 216 143
          797 799 780 1673 1675 1674
          216 222 217 142 799 789
          781 1676 1678 1677 219 211
          218 326 793 791 783 1663
          1661 1679 220 213 219 329
          796 794 785 1680 1682 1681
          221 215 220 330 800 795
          786 1683 1668 1669 222 215
          221 328 798 800 787 1684
          1686 1685 79 223 80 230
          804 805 445 858 1687 857
          80 224 81 236 807 806
          446 860 1688 859 81 225
          82 235 809 808 447 862
          1689 861 82 226 83 234
          811 810 448 864 1690 863
          83 227 84 232 813 812
          449 866 1691 865 84 228
          85 233 815 814 450 868
          1692 867 85 229 14 94
          817 816 451 855 1693 462
          14 229 86 299 816 818
          452 1141 1694 1142 86 76
          13 288 819 440 453 1143
          1695 1144 71 223 70 355
          821 820 434 1696 1698 1697
          72 224 71 356 823 822
          435 1699 1701 1700 73 225
          72 357 825 824 436 1702
          1704 1703 74 226 73 360
          827 826 437 1705 1707 1706
          75 227 74 358 829 828
          438 1708 1710 1709 76 228
          75 359 831 830 439 1711
          1713 1712 70 223 33 170
          820 803 801 1412 1714 569
          33 223 79 170 803 804
          802 569 1714 1433 223 224
          80 236 832 807 805 1715
          1688 860 224 225 81 235
          833 809 806 1716 1689 862
          225 226 82 234 834 811
          808 1717 1690 864 226 227
          83 232 835 813 810 1718
          1691 866 227 228 84 233
          836 815 812 1719 1692 868
          228 229 85 231 837 817
          814 1720 1721 876 229 76
          86 288 838 819 818 1722
          1695 1143 71 224 223 355
          822 832 821 1696 1723 1698
          72 225 224 356 824 833
          823 1699 1724 1701 73 226
          225 357 826 834 825 1702
          1725 1704 74 227 226 358
          828 835 827 1709 1710 1726
          75 228 227 358 830 836
          829 1708 1727 1710 76 229
          228 359 838 837 831 1711
          1728 1713 15 87 231 102
          454 842 843 472 893 1729
          87 88 231 239 455 844
          842 896 895 1730 88 89
          232 239 456 848 845 895
          897 1731 89 90 234 240
          457 850 847 899 898 1732
          90 91 235 241 458 852
          849 901 900 1733 91 92
          236 374 459 873 851 1734
          1736 1735 92 93 230 243
          460 853 854 914 905 1737
          94 15 231 102 463 843
          856 1146 472 1729 32 79
          230 170 839 858 840 566
          1433 1434 93 32 230 45
          841 840 853 877 568 1435
          231 88 233 239 844 846
          869 1730 895 1738 232 89
          234 240 848 847 871 1739
          899 1732 88 232 233 239
          845 870 846 895 1731 1738
          234 90 235 241 850 849
          872 1740 901 1733 235 91
          236 374 852 851 874 1741
          1734 1735 236 92 230 374
          873 854 875 1735 1736 1742
          85 94 231 299 855 856
          876 1743 1145 1744 230 80
          236 223 857 860 875 1687
          805 1715 236 81 235 224
          859 862 874 1688 806 1716
          235 82 234 225 861 864
          872 1689 808 1717 234 83
          232 226 863 866 871 1690
          810 1718 232 84 233 227
          865 868 870 1691 812 1719
          233 85 231 228 867 876
          869 1692 814 1720 95 238
          16 288 881 880 464 1745
          1746 1147 96 238 95 359
          882 881 465 1747 1749 1748
          97 239 96 358 884 883
          466 1750 1752 1751 98 240
          97 360 886 885 467 1753
          1755 1754 99 241 98 357
          888 887 468 1756 1758 1757
          100 242 99 356 890 889
          469 1759 1761 1760 101 237
          100 355 892 891 470 1762
          1764 1763 9 237 101 170
          878 892 471 600 1432 1456
          16 238 102 288 880 894
          473 1147 1746 1148 91 242
          92 374 903 902 459 1734
          1765 1736 93 237 45 230
          904 879 877 853 1766 1435
          96 239 238 359 883 906
          882 1747 1767 1749 97 240
          239 358 885 907 884 1750
          1768 1752 98 241 240 360
          887 908 886 1753 1769 1755
          99 242 241 357 889 909
          888 1756 1770 1758 100 243
          242 374 911 910 890 1771
          1772 1765 237 243 100 355
          912 911 891 1764 1773 1763
          102 238 87 231 894 913
          893 1729 1774 842 87 238
          239 231 913 906 896 842
          1774 1730 239 240 89 232
          907 899 897 1731 1739 848
          240 241 90 234 908 901
          898 1732 1740 850 241 242
          91 235 909 903 900 1733
          1775 852 242 243 92 374
          910 914 902 1765 1772 1736
          243 237 93 230 912 904
          905 1737 1766 853 103 245
          17 293 919 918 474 1776
          1777 1125 104 245 103 257
          920 919 475 972 1778 973
          105 246 104 256 922 921
          476 974 1779 975 106 247
          105 255 924 923 477 976
          1780 977 107 248 106 254
          926 925 478 978 1781 979
          108 249 107 375 928 927
          479 1782 1784 1783 109 244
          108 375 930 929 480 1785
          1786 1782 6 244 109 39
          916 930 481 392 1423 953
          110 117 18 292 931 491
          482 1123 1787 1124 17 245
          110 293 918 932 483 1125
          1777 1126 112 250 111 354
          952 934 485 1788 1790 1789
          113 249 112 353 936 935
          486 1791 1793 1792 114 248
          113 352 938 937 487 1794
          1796 1795 115 247 114 351
          940 939 488 1797 1799 1798
          116 246 115 350 942 941
          489 1800 1802 1801 117 246
          116 349 943 942 490 1803
          1805 1804 111 244 40 176
          933 917 915 1425 1446 587
          104 246 245 256 921 944
          920 975 1779 1806 105 247
          246 255 923 945 922 977
          1780 1807 106 248 247 254
          925 946 924 979 1781 1808
          107 249 248 375 927 947
          926 1783 1784 1809 108 250
          249 375 949 948 928 1782
          1810 1784 244 250 108 375
          950 949 929 1786 1810 1782
          110 245 117 292 932 951
          931 1123 1811 1787 250 244
          111 354 950 933 934 1790
          1812 1789 112 249 250 353
          935 948 952 1792 1793 1813
          113 248 249 352 937 947
          936 1795 1796 1814 114 247
          248 352 939 946 938 1794
          1815 1796 115 246 247 350
          941 945 940 1801 1802 1816
          117 245 246 349 951 944
          943 1803 1817 1805 5 251
          54 177 954 956 414 582
          1424 1421 57 255 58 373
          962 965 418 1512 1818 1511
          118 103 17 293 971 474
          493 1128 1776 1125 107 252
          108 375 981 980 479 1783
          1819 1782 108 253 109 375
          983 982 480 1782 1820 1785
          109 251 39 244 984 955
          953 930 1821 1423 251 253
          55 194 985 959 957 1524
          1822 661 252 254 56 193
          987 960 961 1525 1526 663
          55 253 252 194 959 986
          958 661 1822 1509 254 255
          57 373 988 962 963 1823
          1818 1512 255 256 58 190
          989 964 965 1824 1514 667
          256 257 59 189 990 966
          967 1529 1515 669 257 118
          60 53 970 968 969 1523
          1127 658 118 257 103 293
          970 973 971 1128 1825 1776
          257 256 104 245 990 975
          972 1778 1806 920 256 255
          105 246 989 977 974 1779
          1807 922 255 254 106 247
          988 979 976 1780 1808 924
          254 252 107 248 987 981
          978 1781 1826 926 252 253
          108 375 986 983 980 1819
          1820 1782 253 251 109 244
          985 984 982 1827 1821 930
          119 8 259 180 494 995
          996 1448 598 1431 120 119
          260 21 495 997 998 1828
          1830 1829 121 120 261 135
          496 999 1000 1831 1833 1832
          122 121 261 134 497 1000
          1001 1834 1836 1835 123 122
          263 133 498 1002 1003 1837
          1839 1838 124 123 264 132
          499 1004 1005 1840 1842 1841
          125 124 264 22 500 1005
          1006 1843 1845 1844 19 125
          265 289 501 1007 1008 1116
          1847 1846 16 126 95 286
          502 1010 464 1114 1113 1848
          126 127 265 286 503 1011
          1012 1113 1115 1849 127 19
          265 289 504 1008 1011 1117
          1116 1846 96 95 266 24
          465 1013 1014 1850 1852 1851
          97 96 267 167 466 1015
          1016 1853 1855 1854 98 97
          268 166 467 1017 1018 1856
          1858 1857 99 98 269 165
          468 1019 1020 1859 1861 1860
          100 99 270 164 469 1021
          1022 1862 1864 1863 101 100
          271 31 470 1023 1024 1865
          1867 1866 9 101 258 182
          471 1025 991 595 1452 1429
          44 258 259 369 993 1026
          994 1455 1869 1868 119 259
          260 21 996 1027 997 1830
          1870 1829 120 260 261 135
          998 1028 999 1833 1871 1832
          122 261 262 134 1001 1029
          1030 1834 1835 1872 263 122
          262 133 1002 1030 1031 1838
          1839 1873 123 263 264 132
          1003 1032 1004 1842 1874 1841
          125 264 265 22 1006 1033
          1007 1843 1844 1875 95 126
          266 286 1010 1009 1013 1848
          1113 1876 126 265 266 286
          1012 1034 1009 1113 1849 1876
          96 266 267 24 1014 1035
          1015 1850 1851 1877 97 267
          268 167 1016 1036 1017 1853
          1854 1878 98 268 269 165
          1018 1037 1019 1861 1879 1860
          99 269 270 335 1020 1038
          1021 1880 1882 1881 100 270
          271 164 1022 1039 1023 1862
          1863 1883 101 271 258 31
          1024 1040 1025 1865 1866 1884
          259 258 260 369 1026 1041
          1027 1868 1869 1885 261 260
          270 334 1028 1042 1043 1886
          1888 1887 262 261 269 341
          1029 1044 1045 1889 1891 1890
          263 262 268 340 1031 1046
          1047 1892 1894 1893 264 263
          267 339 1032 1048 1049 1895
          1897 1896 265 264 266 147
          1033 1050 1034 1898 1900 1899
          267 266 264 146 1035 1050
          1049 1901 1903 1902 268 267
          263 339 1036 1048 1047 1904
          1896 1897 269 268 262 336
          1037 1046 1045 1905 1907 1906
          270 269 261 341 1038 1044
          1043 1908 1890 1891 271 270
          260 169 1039 1042 1051 1909
          1911 1910 258 271 260 169
          1040 1051 1041 1912 1909 1910
          112 111 274 20 485 1058
          1059 1913 1915 1914 113 112
          274 141 486 1059 1060 1916
          1918 1917 114 113 275 140
          487 1061 1062 1919 1921 1920
          115 114 277 139 488 1063
          1064 1922 1924 1923 116 115
          277 138 489 1064 1065 1925
          1927 1926 117 116 279 23
          490 1066 1067 1928 1930 1929
          18 117 129 291 491 1068
          507 1121 1931 1122 19 128
          280 290 505 1069 1070 1119
          1118 1932 128 129 279 290
          506 1071 1072 1118 1120 1933
          8 119 272 179 494 1073
          1052 590 1449 1426 119 120
          281 21 495 1074 1075 1830
          1828 1934 120 121 282 135
          496 1076 1077 1833 1831 1935
          121 122 282 134 497 1078
          1076 1836 1834 1936 122 123
          283 133 498 1080 1097 1839
          1837 1937 123 124 284 132
          499 1081 1082 1842 1840 1938
          124 125 284 22 500 1083
          1081 1845 1843 1939 125 19
          280 363 501 1070 1084 1940
          1942 1941 41 272 273 181
          1053 1085 1054 592 1447 1427
          42 273 111 178 1055 1057
          1056 593 1450 1428 274 111
          273 20 1058 1057 1086 1914
          1915 1943 113 274 275 141
          1060 1087 1061 1916 1917 1944
          114 275 276 140 1062 1088
          1089 1919 1920 1945 277 114
          276 310 1063 1089 1090 1946
          1948 1947 116 277 278 138
          1065 1091 1092 1925 1926 1949
          279 116 278 23 1066 1092
          1093 1929 1930 1950 117 279
          129 291 1067 1071 1068 1931
          1951 1122 280 128 279 290
          1069 1072 1094 1932 1118 1933
          272 119 281 21 1073 1075
          1095 1952 1830 1934 281 120
          282 135 1074 1077 1096 1953
          1833 1935 282 122 283 134
          1078 1097 1098 1936 1834 1954
          283 123 285 133 1080 1079
          1100 1937 1837 1955 123 284
          285 132 1082 1099 1079 1842
          1938 1956 284 125 280 22
          1083 1084 1101 1939 1843 1957
          273 272 281 131 1085 1095
          1102 1958 1960 1959 274 273
          281 130 1086 1102 1103 1961
          1963 1962 275 274 281 304
          1087 1103 1104 1964 1966 1965
          276 275 282 307 1088 1105
          1106 1967 1969 1968 277 276
          285 308 1090 1107 1108 1970
          1972 1971 278 277 285 309
          1091 1108 1109 1973 1975 1974
          279 278 284 136 1093 1110
          1111 1976 1978 1977 280 279
          284 136 1094 1111 1101 1979
          1976 1977 281 282 275 305
          1096 1105 1104 1980 1982 1981
          282 283 276 307 1098 1112
          1106 1968 1983 1967 283 285
          276 308 1100 1107 1112 1984
          1971 1972 285 284 278 306
          1099 1110 1109 1985 1987 1986
          10 296 69 371 1157 1135
          432 1553 1988 1552 14 299
          94 229 1141 1145 462 816
          1694 1693 16 287 286 95
          1150 1149 1114 464 1989 1848
          286 289 127 265 1151 1117
          1115 1849 1846 1011 289 290
          19 280 1152 1119 1116 1990
          1932 1070 290 291 129 364
          1153 1122 1120 1991 1993 1992
          291 292 18 117 1154 1124
          1121 1931 1787 491 292 293
          110 245 1155 1126 1123 1811
          1777 932 118 293 53 257
          1128 1156 1127 970 1825 1523
          292 296 10 46 1158 1157
          1129 1489 1994 404 53 293
          292 189 1156 1155 1130 657
          1995 1516 294 298 12 361
          1159 1140 1131 1996 1998 1997
          68 295 294 201 1133 1160
          1132 696 1583 1581 69 296
          295 371 1135 1161 1134 1552
          1988 1999 297 288 13 76
          1162 1144 1136 1634 1695 440
          77 298 297 362 1138 1163
          1137 2000 2002 2001 86 288
          299 229 1143 1164 1142 818
          1722 1694 299 102 94 231
          1165 1146 1145 1744 1729 856
          288 287 16 95 1166 1150
          1147 1745 1989 464 102 299
          288 238 1165 1164 1148 894
          2003 1746 287 300 286 365
          1168 1167 1149 2004 2006 2005
          286 300 289 365 1167 1169
          1151 2005 2006 2007 289 301
          290 363 1171 1170 1152 2008
          2010 2009 290 301 291 364
          1170 1172 1153 1991 2011 1993
          291 296 292 23 1173 1158
          1154 2012 2014 2013 294 303
          298 361 1175 1174 1159 1996
          2015 1998 295 303 294 366
          1176 1175 1160 2016 2018 2017
          296 302 295 371 1178 1177
          1161 1988 2019 1999 297 287
          288 25 1179 1166 1162 2020
          2022 2021 298 303 297 362
          1174 1180 1163 2002 2023 2001
          287 297 300 362 1179 1181
          1168 2024 2001 2025 300 301
          289 376 1182 1171 1169 2026
          2028 2027 301 302 291 364
          1184 1183 1172 2011 2029 1993
          291 302 296 371 1183 1178
          1173 2030 2019 1988 295 302
          303 366 1177 1185 1176 2016
          2031 2018 303 300 297 362
          1186 1181 1180 2023 2025 2001
          300 303 301 376 1186 1187
          1182 2026 2032 2028 301 303
          302 376 1187 1185 1184 2028
          2032 2033 130 20 141 274
          508 523 1188 1961 1914 1917
          131 130 304 281 509 1189
          1190 1959 1962 1965 21 131
          305 281 510 1191 1192 1934
          1959 1980 22 132 306 284
          511 1193 1194 1939 1938 1987
          132 133 306 285 512 1195
          1193 1956 1955 1985 133 134
          307 283 513 1196 1197 1937
          1954 1983 134 135 305 282
          514 1198 1199 1936 1935 1982
          135 21 305 281 515 1192
          1198 1953 1934 1980 136 22
          306 284 516 1194 1200 1977
          1939 1987 137 136 306 278
          517 1200 1201 2034 1978 1986
          23 137 138 278 518 1203
          519 1950 2034 1949 139 138
          309 277 520 1204 1205 1923
          1926 1975 140 139 310 114
          521 1206 1207 1919 1924 1948
          141 140 304 275 522 1208
          1209 1944 1920 1964 130 141
          304 274 1188 1209 1189 1961
          1917 1966 131 304 305 281
          1190 1210 1191 1959 1965 1980
          306 133 308 285 1195 1211
          1212 1985 1955 1971 307 134
          305 282 1196 1199 1213 1968
          1936 1982 133 307 308 283
          1197 1214 1211 1937 1983 1984
          137 306 309 278 1201 1215
          1202 2034 1986 1973 138 137
          309 278 1203 1202 1204 1949
          2034 1973 139 309 310 277
          1205 1216 1206 1923 1975 1946
          140 310 311 276 1207 1217
          1218 1945 1947 2035 304 140
          311 275 1208 1218 1219 1964
          1920 2036 305 304 307 275
          1210 1220 1213 1981 1964 1969
          306 308 309 285 1212 1221
          1215 1985 1971 1974 308 307
          311 276 1214 1222 1223 1972
          1967 2035 310 309 308 277
          1216 1221 1224 1946 1975 1970
          311 310 308 276 1217 1224
          1223 2035 1947 1972 304 311
          307 275 1219 1222 1220 1964
          2036 1969 24 312 25 287
          1226 1225 524 2037 2038 2022
          142 313 26 361 1228 1227
          525 2039 2041 2040 143 312
          142 362 1230 1229 526 2042
          2044 2043 25 312 143 362
          1225 1230 527 2045 2044 2042
          144 314 27 371 1232 1231
          528 2046 2048 2047 145 314
          144 366 1233 1232 529 2049
          2051 2050 26 313 145 361
          1227 1234 530 2040 2041 2052
          27 314 23 371 1231 1235
          531 2047 2048 2053 136 316
          22 363 1237 1236 516 2054
          2056 2055 137 316 136 364
          1238 1237 517 2057 2059 2058
          23 314 137 364 1235 1239
          518 2060 2061 2057 146 312
          24 365 1240 1226 532 2062
          2064 2063 147 317 146 365
          1242 1241 533 2065 2066 2062
          22 316 147 363 1236 1243
          534 2055 2056 2067 142 312
          313 362 1229 1244 1228 2043
          2044 2068 145 315 314 366
          1246 1245 1233 2049 2069 2051
          313 315 145 366 1247 1246
          1234 2070 2069 2049 137 314
          316 364 1239 1248 1238 2057
          2061 2059 146 317 312 365
          1241 1249 1240 2062 2066 2064
          147 316 317 363 1243 1250
          1242 2067 2056 2071 312 315
          313 362 1251 1247 1244 2044
          2072 2068 315 316 314 376
          1252 1248 1245 2073 2075 2074
          317 315 312 376 1253 1251
          1249 2076 2073 2077 316 315
          317 376 1252 1253 1250 2075
          2073 2076 28 141 20 353
          1254 523 535 2078 2080 2079
          138 151 23 350 1256 1255
          519 2081 2083 2082 139 151
          138 351 1257 1256 520 2084
          2086 2085 140 150 139 351
          1259 1258 521 2087 2088 2084
          141 149 140 352 1261 1260
          522 2089 2091 2090 23 151
          27 350 1255 540 531 2082
          2083 2092 148 141 28 353
          1262 1254 536 2093 2080 2078
          149 141 148 352 1261 1262
          537 2091 2089 2094 150 140
          149 351 1259 1260 538 2088
          2087 2095 151 139 150 351
          1257 1258 539 2086 2084 2088
          152 29 157 197 541 548
          1263 1592 1534 1577 153 152
          318 208 542 1264 1265 2096
          1615 1595 28 153 319 208
          543 1266 1267 1589 2096 2097
          148 28 319 208 536 1267
          1268 1588 1589 2097 149 148
          319 207 537 1268 1269 1587
          1570 2098 150 149 320 206
          538 1270 1271 1586 1567 2099
          151 150 322 205 539 1272
          1273 1561 1564 1604 27 151
          144 204 540 1274 528 1558
          1585 2100 145 144 322 202
          529 1275 1276 1605 2101 1603
          26 145 323 202 530 1277
          1278 1582 1605 2102 154 26
          323 202 544 1278 1279 1580
          1582 2102 155 154 323 200
          545 1279 1280 1543 1546 2103
          156 155 324 199 546 1281
          1282 1540 1579 1599 157 156
          318 198 547 1283 1284 1537
          1578 1594 152 157 318 197
          1263 1284 1264 1592 1577 1593
          153 318 319 208 1265 1285
          1266 2096 1595 2097 149 319
          320 207 1269 1286 1270 1587
          2098 2104 150 320 321 206
          1271 1287 1288 1586 2099 1611
          322 150 321 205 1272 1288
          1289 1604 1564 1610 151 322
          144 204 1273 1275 1274 1585
          1609 2100 145 322 323 202
          1276 1290 1277 1605 1603 2102
          155 323 324 200 1280 1291
          1281 1543 2103 1600 156 324
          325 199 1282 1292 1293 1540
          1599 1597 318 156 325 198
          1283 1293 1294 1594 1578 1596
          319 318 320 207 1285 1295
          1286 2098 1614 2104 321 320
          325 206 1287 1296 1297 1611
          2099 1613 322 321 324 205
          1289 1298 1299 1604 1610 2105
          323 322 324 200 1290 1299
          1291 2103 1602 1600 325 324
          321 206 1292 1298 1297 1613
          1601 1611 318 325 320 207
          1294 1296 1295 1614 1598 2104
          158 30 326 211 549 1300
          1301 2106 1618 1661 159 158
          326 211 550 1301 1302 1660
          2106 1661 29 159 327 218
          551 1303 1304 1651 1659 2107
          26 154 328 222 544 1305
          1306 1656 2108 1684 154 155
          328 221 545 1307 1305 1641
          1654 1685 155 156 329 220
          546 1324 1308 1640 1639 1680
          156 157 327 219 547 1310
          1311 1653 1652 2109 157 29
          327 218 548 1304 1310 1638
          1651 2107 142 26 328 222
          525 1306 1312 1678 1656 1684
          143 142 331 222 526 1313
          1314 1675 1678 1672 25 143
          160 214 527 1315 552 1633
          1673 1630 161 160 331 215
          553 1316 1317 1647 1648 1670
          162 161 332 213 554 1318
          1319 1646 1627 2110 163 162
          326 212 555 1320 1321 1645
          1624 1662 30 163 326 211
          556 1321 1300 1618 1621 1661
          159 326 327 218 1302 1322
          1303 1659 1679 2107 328 155
          330 221 1307 1309 1323 1685
          1654 1683 329 156 327 219
          1324 1311 1326 1681 1653 2109
          155 329 330 220 1308 1325
          1309 1640 1680 1669 142 328
          331 222 1312 1327 1313 1678
          1684 1672 143 331 160 214
          1314 1316 1315 1673 1671 1630
          161 331 332 215 1317 1328
          1318 1647 1670 2111 162 332
          333 212 1319 1329 1330 1624
          2112 1664 326 162 333 212
          1320 1330 1331 1662 1624 1664
          327 326 333 219 1322 1331
          1332 2109 1663 1666 328 330
          331 215 1323 1333 1327 1686
          1668 1670 329 327 333 219
          1326 1332 1334 1681 2109 1666
          330 329 333 213 1325 1334
          1335 1667 1682 1665 332 331
          330 215 1328 1333 1336 2111
          1670 1668 333 332 330 213
          1329 1336 1335 1665 2110 1667
          31 164 30 356 558 1337
          557 2113 2115 2114 25 167
          24 358 1338 562 524 2116
          2118 2117 161 166 160 360
          1340 1339 553 2119 2121 2120
          162 165 161 357 1342 1341
          554 2122 2124 2123 163 164
          162 357 1344 1343 555 2125
          2126 2122 30 164 163 356
          1337 1344 556 2114 2115 2127
          165 162 164 357 1342 1343
          559 2124 2122 2126 166 161
          165 357 1340 1341 560 2128
          2123 2124 167 160 166 360
          1345 1339 561 2129 2120 2121
          167 25 160 358 1338 552
          1345 2118 2116 2130 168 21
          334 260 563 1346 1347 2131
          1829 1888 169 168 334 270
          564 1347 1348 1911 2132 1887
          31 169 164 271 565 1350
          558 1866 1909 1883 165 164
          335 269 559 1351 1352 1860
          2133 1882 166 165 336 268
          560 1370 1353 1857 1879 1907
          167 166 337 268 561 1354
          1355 1878 1857 2134 24 167
          338 267 562 1356 1357 1877
          1854 2135 146 24 338 267
          532 1357 1358 1901 1877 2135
          147 146 338 267 533 1358
          1359 2136 1901 2135 22 147
          132 264 534 1361 511 1844
          1900 1841 133 132 339 263
          512 1362 1363 1838 1874 1897
          134 133 340 262 513 1375
          1364 1872 1873 1894 135 134
          341 261 514 1365 1366 1832
          1835 1891 21 135 334 260
          515 1367 1346 1829 1871 1888
          169 334 335 270 1348 1368
          1349 1911 1887 1881 164 169
          335 270 1350 1349 1351 1863
          1911 1881 165 335 336 269
          1352 1369 1370 1860 1882 1905
          166 336 337 268 1353 1371
          1354 1857 1907 2134 167 337
          338 268 1355 1372 1356 1878
          2134 2137 147 338 339 267
          1359 1373 1360 2136 2135 1896
          132 147 339 264 1361 1360
          1362 1841 1900 1895 133 339
          340 263 1363 1374 1375 1838
          1897 1892 134 340 341 262
          1364 1376 1365 1872 1894 1889
          135 341 334 261 1366 1377
          1367 1832 1891 1886 335 334
          341 261 1368 1377 1378 2138
          1886 1891 336 335 341 269
          1369 1378 1379 1905 1882 1890
          337 336 340 268 1371 1380
          1381 2134 1907 1893 338 337
          339 268 1372 1382 1373 2137
          2134 1904 340 339 337 263
          1374 1382 1381 1892 1897 2139
          341 340 336 262 1376 1380
          1379 1889 1894 1906 158 342
          30 172 1384 1383 549 2140
          2141 1461 159 342 158 367
          1385 1384 550 2142 2144 2143
          29 343 159 367 1387 1386
          551 2145 2146 2142 30 342
          31 372 1383 1388 557 2147
          2149 2148 168 344 21 348
          1390 1389 563 2150 2152 2151
          169 344 168 372 1391 1390
          564 2153 2155 2154 31 342
          169 372 1388 1392 565 2148
          2149 2153 130 345 20 370
          1394 1393 508 2156 2158 2157
          131 345 130 370 1395 1394
          509 2159 2158 2156 21 344
          131 348 1389 1396 510 2151
          2152 2160 20 345 28 377
          1393 1397 535 2161 2163 2162
          152 343 29 367 1398 1387
          541 2164 2146 2145 153 347
          152 368 1400 1399 542 2165
          2167 2166 28 345 153 377
          1397 1401 543 2162 2163 2168
          159 343 342 367 1386 1402
          1385 2142 2146 2144 169 342
          344 372 1392 1403 1391 2153
          2149 2155 131 346 345 370
          1405 1404 1395 2159 2169 2158
          344 346 131 348 1406 1405
          1396 2152 2170 2160 152 347
          343 368 1399 1407 1398 2166
          2167 2171 153 345 347 377
          1401 1408 1400 2168 2163 2172
          343 346 342 378 1410 1409
          1402 2173 2175 2174 342 346
          344 378 1409 1406 1403 2174
          2175 2176 346 347 345 379
          1411 1408 1404 2177 2179 2178
          347 346 343 379 1411 1410
          1407 2179 2177 2180 175 4
          52 377 577 411 1416 1441
          1439 2181 175 36 368 196
          576 1417 1418 1574 679 1575
          174 37 195 368 580 681
          1420 1442 1419 1530 4 176
          52 377 583 1422 411 1439
          1440 2181 177 39 251 244
          586 955 1424 1445 1423 1821
          44 183 258 369 596 1430
          993 1455 1453 1869 180 44
          259 369 599 994 1431 1454
          1455 1868 170 45 237 230
          601 879 1432 1434 1435 1766
          170 171 70 355 602 1436
          1412 2183 2182 1697 173 174
          209 367 604 1437 1413 1459
          1457 2184 172 173 210 158
          605 1414 1438 2140 2185 2186
          171 172 70 30 606 1415
          1436 1463 1461 1616 176 177
          188 354 609 1443 1444 2188
          2187 1507 177 176 244 354
          609 1446 1445 2187 2188 1812
          176 178 111 20 611 1428
          1425 2190 2189 1915 181 179
          272 370 613 1426 1447 1468
          1466 2191 179 180 119 272
          614 1448 1449 1426 2192 1073
          178 181 273 20 615 1427
          1450 2189 2193 1943 183 182
          258 372 616 1429 1430 1476
          1474 2194 182 171 101 31
          617 1451 1452 2196 2195 1865
          180 183 369 348 619 1453
          1454 1469 1477 2197 171 170
          101 355 602 1456 1451 2182
          2183 1762 185 174 367 368
          621 1457 1458 1465 1442 2198
          173 172 367 158 605 1460
          1459 2185 2140 2143 182 172
          30 372 623 1461 1462 1474
          1479 2147 171 182 30 31
          617 1462 1463 2195 2196 557
          178 176 377 20 611 1440
          1464 2189 2190 2161 187 179
          370 348 627 1466 1467 1470
          1471 2199 180 179 348 272
          614 1471 1469 2192 1426 2200
          181 178 370 20 615 1473
          1468 2193 2189 2157 178 186
          370 377 629 1472 1473 1464
          1480 2201 183 184 372 378
          631 1475 1476 1484 1482 2202
          187 183 348 378 633 1477
          1470 1483 1484 2203 184 185
          367 378 635 1458 1478 1482
          1485 2204 172 184 367 342
          634 1478 1460 2141 2205 2144
          184 172 372 342 634 1479
          1475 2205 2141 2149 175 186
          377 368 636 1480 1441 1418
          1481 2206 185 186 368 379
          637 1481 1465 1488 1486 2207
          186 187 370 379 638 1467
          1472 1486 1487 2208 187 185
          378 379 640 1485 1483 1487
          1488 2209 46 47 349 27
          405 1490 1491 1556 1557 2210
          189 46 349 292 645 1491
          1492 1516 1489 2211 47 48
          350 151 406 1493 1494 1559
          1560 2083 190 47 350 349
          647 1494 1495 1517 1490 2212
          48 49 351 150 407 1496
          1497 1562 1563 2088 191 48
          351 350 649 1497 1498 1518
          1493 2213 49 50 352 149
          408 1499 1500 1565 1566 2091
          192 49 352 351 651 1500
          1501 1519 1496 2214 50 51
          353 148 409 1502 1503 1568
          1569 2093 51 194 353 354
          676 1504 1502 1506 1522 2215
          51 52 354 28 410 1505
          1506 1571 1572 2216 52 188
          354 176 656 1507 1505 1422
          1444 2188 188 54 251 177
          659 956 1508 1443 1421 1424
          57 192 254 373 665 1510
          963 1512 1527 1823 190 189
          349 256 671 1492 1517 1514
          1529 2217 191 190 350 373
          672 1495 1518 1513 1528 2218
          192 191 351 373 673 1498
          1519 1527 1513 2219 50 193
          352 353 653 1520 1499 1503
          1521 2220 193 192 352 373
          674 1501 1520 2221 1527 2222
          194 193 353 375 675 1521
          1504 2224 2223 2225 188 194
          354 253 677 1522 1507 2226
          1822 2227 53 189 257 293
          657 1515 1523 1156 1995 1825
          194 188 251 253 677 1508
          1524 1822 2226 985 193 194
          252 375 675 1509 1525 2223
          2224 1819 192 193 254 373
          674 1526 1510 1527 2221 1823
          58 190 373 255 667 1528
          1511 965 1824 1818 195 61
          174 367 684 1531 1420 2229
          2228 1457 197 62 29 157
          687 1533 1534 1577 1535 548
          198 63 157 156 714 1536
          1537 1578 1538 547 199 64
          156 155 688 1539 1540 1579
          1541 546 200 65 155 154
          692 1542 1543 1546 1544 545
          201 67 26 361 693 1548
          1549 2231 2230 2040 12 67
          294 361 429 1550 1131 1997
          2230 1996 203 69 295 371
          697 1134 1551 1554 1552 1999
          46 10 371 296 404 1553
          1555 1994 1157 1988 46 204
          27 371 702 1558 1556 1555
          1584 2047 204 47 27 151
          701 1557 1558 1585 1559 540
          205 48 151 150 705 1560
          1561 1564 1562 539 49 206
          149 150 707 1567 1565 1563
          1586 538 50 207 148 149
          709 1570 1568 1566 1587 537
          196 52 28 377 710 1572
          1573 2232 2181 2162 52 196
          175 377 710 1574 1416 2181
          2232 1441 196 195 368 152
          712 1530 1575 1590 1591 2166
          61 195 29 367 684 1576
          1532 2228 2229 2145 195 197
          29 152 713 1534 1576 1591
          1592 541 197 198 157 318
          715 1537 1577 1593 1594 1284
          198 199 156 325 716 1540
          1578 1596 1597 1293 199 200
          155 324 717 1543 1579 1599
          1600 1281 200 202 154 323
          719 1580 1546 2103 2102 1279
          202 66 154 26 718 1545
          1580 1582 1547 544 67 201
          294 361 693 1581 1550 2230
          2231 1996 202 201 26 145
          720 1549 1582 1605 1606 530
          201 203 295 145 721 1551
          1583 1606 1608 2233 203 204
          371 144 722 1584 1554 2234
          2100 2046 204 205 151 322
          723 1561 1585 1609 1604 1273
          205 206 150 321 724 1586
          1564 1610 1611 1288 206 207
          149 320 725 1587 1567 2099
          2104 1270 207 208 148 319
          727 1588 1570 2098 2097 1268
          208 51 148 28 726 1569
          1588 1589 1571 536 208 196
          28 153 728 1573 1589 2096
          2235 543 197 208 318 152
          731 1595 1593 1592 1615 1264
          198 207 325 318 733 1598
          1596 1594 1614 1294 199 206
          324 325 735 1601 1599 1597
          1613 1292 206 200 324 321
          734 1600 1601 1611 1612 1298
          202 200 322 323 719 1602
          1603 2102 2103 1290 200 205
          322 324 737 1604 1602 1600
          2105 1299 202 204 145 144
          739 1607 1605 2101 2100 529
          204 203 145 144 722 1608
          1607 2100 2234 529 204 202
          322 144 739 1603 1609 2100
          2101 1275 205 200 321 324
          737 1612 1610 2105 1600 1298
          207 206 325 320 725 1613
          1598 2104 2099 1296 208 207
          318 319 727 1614 1595 2097
          2098 1285 196 208 152 153
          728 1615 1590 2235 2096 542
          71 70 30 355 434 1616
          1617 1696 1697 2236 211 71
          30 163 746 1617 1618 1621
          1619 556 72 71 163 356
          435 1619 1620 1699 1700 2127
          73 72 162 357 436 1622
          1623 1702 1703 2122 72 212
          162 163 750 1624 1622 1620
          1645 555 74 73 161 360
          437 1625 1626 1705 1706 2119
          73 213 161 162 752 1627
          1625 1623 1646 554 75 74
          160 358 438 1628 1629 1708
          1709 2130 214 75 160 25
          753 1629 1630 1633 1631 552
          76 75 25 359 439 1631
          1632 1711 1712 2237 76 216
          297 25 757 1635 1634 1632
          1649 2020 216 77 297 362
          758 1137 1635 2238 2000 2001
          61 209 174 367 762 1437
          1531 2228 2184 1457 209 61
          29 367 762 1532 1637 2184
          2228 2145 218 62 157 29
          764 1535 1638 1651 1533 548
          64 220 156 155 767 1639
          1539 1541 1640 546 66 221
          154 26 770 1641 1545 1547
          1655 544 221 65 154 155
          769 1544 1641 1654 1542 545
          67 217 26 361 772 1642
          1548 2230 2239 2040 67 12
          298 361 429 1140 1643 2230
          1997 1998 217 67 298 361
          772 1643 1636 2239 2230 1998
          209 210 173 367 773 1414
          1413 2184 2240 1459 210 70
          172 30 745 1415 1438 1644
          1616 1461 210 211 30 158
          774 1618 1644 2186 2106 549
          211 212 163 326 775 1645
          1621 1661 1662 1321 212 213
          162 332 776 1646 1624 2112
          2110 1319 213 215 161 332
          778 1647 1627 2110 2111 1318
          215 74 161 160 777 1626
          1647 1648 1628 553 215 214
          160 331 779 1630 1648 1670
          1671 1316 214 216 25 143
          780 1649 1633 1673 1674 527
          77 216 298 362 758 1650
          1138 2000 2238 2002 216 217
          298 362 781 1636 1650 2238
          2241 2002 218 209 29 159
          782 1637 1651 1659 1657 551
          63 219 157 156 784 1652
          1536 1538 1653 547 219 218
          157 327 783 1638 1652 2109
          2107 1310 220 219 156 329
          785 1653 1639 1680 1681 1324
          221 220 155 330 786 1640
          1654 1683 1669 1309 222 221
          26 154 787 1655 1656 2108
          1641 544 217 222 26 142
          789 1656 1642 1677 1678 525
          210 209 159 367 773 1657
          1658 2240 2184 2142 211 210
          159 158 774 1658 1660 2106
          2186 550 218 211 159 326
          791 1660 1659 1679 1661 1302
          219 212 326 333 792 1662
          1663 1666 1664 1331 213 212
          333 332 776 1664 1665 2110
          2112 1329 219 213 333 329
          794 1665 1666 1681 1682 1334
          215 213 330 332 778 1667
          1668 2111 2110 1336 213 220
          330 329 796 1669 1667 1682
          1680 1325 215 222 331 328
          798 1672 1670 1686 1684 1327
          222 214 331 143 797 1671
          1672 1675 1673 1314 222 216
          143 142 799 1674 1675 1678
          1676 526 217 216 142 362
          781 1676 1677 2241 2238 2043
          218 219 326 327 783 1663
          1679 2107 2109 1322 221 215
          330 328 800 1668 1683 1685
          1686 1323 221 222 328 154
          787 1684 1685 1641 2108 1305
          79 223 230 170 804 1687
          858 1433 1714 1434 85 229
          94 299 817 1693 855 1743
          1694 1145 223 70 355 170
          820 1697 1698 1714 1412 2183
          224 71 356 355 822 1700
          1701 1723 1696 2242 225 72
          357 356 824 1703 1704 1724
          1699 2243 74 226 360 358
          827 1707 1705 1709 1726 2244
          226 73 360 357 826 1706
          1707 1725 1702 2245 228 75
          359 358 830 1712 1713 1727
          1708 2246 223 224 236 374
          832 1688 1715 2248 2247 1735
          224 225 235 356 833 1689
          1716 1701 1724 2249 225 226
          234 357 834 1690 1717 1704
          1725 2250 226 227 232 358
          835 1691 1718 1726 1710 2251
          227 228 233 358 836 1692
          1719 1710 1727 2252 228 229
          231 359 837 1721 1720 1713
          1728 2253 229 85 231 299
          817 876 1721 1694 1743 1744
          229 76 288 359 838 1695
          1722 1728 1711 2254 224 223
          355 374 832 1698 1723 2247
          2248 2255 230 92 243 374
          854 914 1737 1742 1736 1772
          233 231 239 359 869 1730
          1738 2256 2253 1767 234 232
          240 360 871 1739 1732 2258
          2257 1755 232 233 239 358
          870 1738 1731 2251 2252 1752
          235 234 241 357 872 1740
          1733 2259 2250 1758 236 235
          374 224 874 1741 1735 1688
          1716 2247 235 91 374 242
          852 1734 1741 1775 903 1765
          230 236 374 355 875 1735
          1742 2261 2260 2255 236 230
          223 355 875 1687 1715 2260
          2261 1698 234 235 225 357
          872 1689 1717 2250 2259 1704
          232 234 226 360 871 1690
          1718 2257 2258 1707 233 232
          227 358 870 1691 1719 2252
          2251 1710 231 233 228 359
          869 1692 1720 2253 2256 1713
          95 238 288 359 881 1746
          1745 1748 1749 2254 95 96
          359 24 465 1747 1748 1852
          1850 2262 96 97 358 167
          466 1750 1751 1855 1853 2118
          239 96 358 359 883 1751
          1752 1767 1747 2246 97 98
          360 166 467 1753 1754 1858
          1856 2121 240 97 360 358
          885 1754 1755 1768 1750 2244
          98 99 357 165 468 1756
          1757 1861 1859 2124 241 98
          357 360 887 1757 1758 1769
          1753 2245 99 100 356 164
          469 1759 1760 1864 1862 2115
          100 242 356 374 890 1761
          1759 1771 1765 2263 242 99
          356 357 889 1760 1761 1770
          1756 2243 100 101 355 31
          470 1762 1763 1867 1865 2264
          101 237 355 170 892 1764
          1762 1456 1432 2183 239 238
          359 231 906 1749 1767 1730
          1774 2253 240 239 358 232
          907 1752 1768 1739 1731 2251
          241 240 360 234 908 1755
          1769 1740 1732 2258 242 241
          357 374 909 1758 1770 1765
          2265 2266 100 243 374 355
          911 1772 1771 1763 1773 2255
          237 243 355 374 912 1773
          1764 2267 1772 2255 102 238
          231 299 894 1774 1729 1165
          2003 1744 241 242 235 374
          909 1775 1733 2265 1765 1741
          243 237 230 374 912 1766
          1737 1772 2267 1742 103 245
          293 257 919 1777 1776 973
          1778 1825 109 244 375 253
          930 1786 1785 982 1827 1820
          111 112 354 20 485 1788
          1789 1915 1913 2268 112 250
          354 353 952 1790 1788 1792
          1813 2215 112 113 353 141
          486 1791 1792 1918 1916 2080
          113 249 353 352 936 1793
          1791 1795 1814 2220 113 114
          352 140 487 1794 1795 1921
          1919 2090 114 115 351 139
          488 1797 1798 1924 1922 2084
          115 247 351 350 940 1799
          1797 1801 1816 2213 247 114
          351 352 939 1798 1799 1815
          1794 2214 115 116 350 138
          489 1800 1801 1927 1925 2081
          116 246 350 349 942 1802
          1800 1804 1805 2212 116 117
          349 23 490 1803 1804 1930
          1928 2269 111 244 176 354
          933 1446 1425 1789 1812 2188
          246 245 256 349 944 1806
          1779 1805 1817 2217 247 246
          255 350 945 1807 1780 1816
          1802 2270 248 247 254 373
          946 1808 1781 2272 2271 1823
          248 107 375 252 926 1783
          1809 1826 981 1819 249 248
          375 352 947 1809 1784 1814
          1796 2273 250 249 375 353
          948 1784 1810 1813 1793 2225
          244 250 375 354 950 1810
          1786 1812 1790 2274 245 117
          292 349 951 1787 1811 1817
          1803 2211 247 248 352 373
          946 1796 1815 2271 2272 2222
          252 254 193 373 987 1526
          1525 2275 1823 2221 253 252
          194 375 986 1509 1822 1820
          1819 2224 254 255 373 247
          988 1818 1823 1808 1780 2271
          255 256 190 350 989 1514
          1824 2270 2276 1495 256 257
          189 349 990 1515 1529 2217
          2277 1492 257 256 245 349
          990 1806 1778 2277 2217 1817
          256 255 246 350 989 1807
          1779 2276 2270 1802 254 252
          248 352 987 1826 1781 2279
          2278 1796 253 251 244 375
          985 1821 1827 1820 2280 1786
          259 119 180 348 996 1448
          1431 2282 2281 1469 260 120
          21 135 998 1828 1829 1871
          1833 515 261 121 135 134
          1000 1831 1832 1835 1836 514
          263 123 133 132 1003 1837
          1838 1874 1842 512 264 124
          132 22 1005 1840 1841 1844
          1845 511 19 125 289 363
          501 1847 1116 1942 1940 2008
          125 265 289 363 1007 1846
          1847 1940 2283 2008 95 266
          24 287 1013 1851 1852 1989
          2284 2037 96 267 167 24
          1015 1854 1855 1850 1877 562
          268 98 166 165 1018 1856
          1857 1879 1861 560 97 268
          166 167 1017 1857 1858 1853
          1878 561 269 99 165 164
          1020 1859 1860 2133 1864 559
          99 270 164 335 1021 1863
          1864 1880 1881 1351 100 271
          31 164 1023 1866 1867 1862
          1883 558 101 258 182 31
          1025 1429 1452 1865 1884 2196
          119 259 21 348 996 1870
          1830 2281 2282 2151 259 260
          21 168 1027 1829 1870 2285
          2131 563 260 261 135 334
          1028 1832 1871 1888 1886 1367
          262 122 134 133 1030 1834
          1872 1873 1839 513 261 262
          134 341 1029 1872 1835 1891
          1889 1365 262 263 133 340
          1031 1838 1873 1894 1892 1375
          263 264 132 339 1032 1841
          1874 1897 1895 1362 265 125
          22 363 1007 1843 1875 2283
          1940 2055 264 265 22 147
          1033 1875 1844 1900 1898 534
          266 95 286 287 1013 1848
          1876 2284 1989 1149 265 266
          286 365 1034 1876 1849 2287
          2286 2005 266 267 24 146
          1035 1877 1851 1903 1901 532
          267 268 167 338 1036 1878
          1854 2135 2137 1356 268 269
          165 336 1037 1860 1879 1907
          1905 1370 99 269 335 164
          1020 1882 1880 1864 2133 1351
          269 270 335 341 1038 1881
          1882 1890 1908 1378 270 271
          164 169 1039 1883 1863 1911
          1909 1350 271 258 31 169
          1040 1884 1866 1909 1912 565
          260 259 369 168 1027 1868
          1885 2131 2285 2288 258 260
          369 168 1041 1885 1869 2289
          2131 2288 270 261 334 335
          1043 1886 1887 1881 2138 1368
          260 270 334 168 1042 1887
          1888 2131 2132 1347 269 262
          341 336 1045 1889 1890 1905
          1906 1379 268 263 340 337
          1047 1892 1893 2134 2139 1381
          262 268 340 336 1046 1893
          1894 1906 1907 1380 267 264
          339 147 1049 1895 1896 2136
          1900 1360 266 265 147 365
          1034 1898 1899 2286 2287 2065
          264 266 147 146 1050 1899
          1900 1902 1903 533 264 267
          146 147 1049 1901 1902 1900
          2136 533 263 268 339 337
          1047 1904 1897 2139 2134 1382
          268 267 339 338 1036 1896
          1904 2137 2135 1373 261 270
          341 335 1043 1908 1891 2138
          1881 1378 270 260 169 168
          1042 1910 1911 2132 2131 564
          260 258 169 168 1041 1912
          1910 2131 2289 564 274 112
          20 141 1059 1913 1914 1917
          1918 523 113 275 140 141
          1061 1920 1921 1916 1944 522
          277 115 139 138 1064 1922
          1923 1926 1927 520 114 277
          139 310 1063 1923 1924 1948
          1946 1206 279 117 23 291
          1067 1928 1929 1951 1931 2012
          129 279 290 364 1071 1933
          1120 1992 2290 1991 120 281
          21 135 1074 1934 1828 1833
          1953 515 121 282 135 134
          1076 1935 1831 1836 1936 514
          283 122 133 134 1097 1839
          1937 1954 1834 513 124 284
          132 22 1081 1938 1840 1845
          1939 511 280 125 363 22
          1084 1940 1941 1957 1843 2055
          19 280 363 289 1070 1941
          1942 1116 1990 2008 272 273
          181 370 1085 1427 1447 2191
          2291 1468 273 111 178 20
          1057 1428 1450 1943 1915 2189
          273 274 20 130 1086 1914
          1943 1963 1961 508 274 275
          141 304 1087 1944 1917 1966
          1964 1209 276 114 140 310
          1089 1919 1945 1947 1948 1207
          275 276 140 311 1088 1945
          1920 2036 2035 1218 276 277
          310 308 1090 1946 1947 1972
          1970 1224 278 116 138 23
          1092 1925 1949 1950 1930 519
          277 278 138 309 1091 1949
          1926 1975 1973 1204 278 279
          23 137 1093 1929 1950 2034
          2292 518 279 129 291 364
          1071 1122 1951 2290 1992 1993
          279 280 290 364 1094 1932
          1933 2290 2293 1991 281 272
          21 131 1095 1952 1934 1959
          1960 510 272 119 21 348
          1073 1830 1952 2200 2281 2151
          282 281 135 305 1096 1953
          1935 1982 1980 1198 283 282
          134 307 1098 1936 1954 1983
          1968 1196 285 283 133 308
          1100 1937 1955 1971 1984 1211
          123 285 133 132 1079 1955
          1837 1842 1956 512 284 285
          132 306 1099 1956 1938 1987
          1985 1193 280 284 22 136
          1101 1939 1957 1979 1977 516
          281 273 131 130 1102 1958
          1959 1962 1963 509 273 272
          131 370 1085 1960 1958 2291
          2191 2159 281 274 130 304
          1103 1961 1962 1965 1966 1189
          281 275 304 305 1104 1964
          1965 1980 1981 1210 276 275
          307 311 1088 1969 1967 2035
          2036 1222 275 282 307 305
          1105 1968 1969 1981 1982 1213
          285 277 308 309 1108 1970
          1971 1974 1975 1221 285 278
          309 306 1109 1973 1974 1985
          1986 1215 279 278 136 137
          1093 1978 1976 2292 2034 517
          278 284 136 306 1110 1977
          1978 1986 1987 1200 280 279
          136 364 1094 1976 1979 2293
          2290 2058 283 276 307 308
          1112 1967 1983 1984 1972 1214
          286 289 265 365 1151 1846
          1849 2005 2007 2287 289 290
          280 363 1152 1932 1990 2008
          2009 1941 291 292 117 23
          1154 1787 1931 2012 2013 1928
          292 293 245 349 1155 1777
          1811 2211 2294 1817 292 296
          46 371 1158 1994 1489 2295
          1988 1555 293 292 189 349
          1155 1516 1995 2294 2211 1492
          295 294 201 366 1160 1581
          1583 2016 2017 2296 297 288
          76 25 1162 1695 1634 2020
          2021 1632 288 299 229 359
          1164 1694 1722 2254 2297 1728
          288 287 95 24 1166 1989
          1745 2298 2037 1852 299 288
          238 359 1164 1746 2003 2297
          2254 1749 286 287 365 24
          1149 2004 2005 2299 2037 2063
          287 300 365 312 1168 2006
          2004 2038 2300 2064 300 289
          365 376 1169 2007 2006 2026
          2027 2301 289 301 363 376
          1171 2010 2008 2027 2028 2302
          301 290 363 364 1170 2009
          2010 2011 1991 2303 291 296
          23 371 1173 2014 2012 2030
          1988 2053 296 292 23 27
          1158 2013 2014 2305 2304 531
          294 303 361 366 1175 2015
          1996 2017 2018 2306 303 298
          361 362 1174 1998 2015 2023
          2002 2307 302 295 371 366
          1177 1999 2019 2031 2016 2308
          297 287 25 312 1179 2022
          2020 2309 2038 1225 287 288
          25 24 1166 2021 2022 2037
          2298 524 300 287 362 312
          1168 2024 2025 2300 2038 2044
          287 297 362 312 1179 2001
          2024 2038 2309 2044 301 302
          364 376 1184 2029 2011 2028
          2033 2310 302 291 364 314
          1183 1993 2029 2312 2311 2061
          291 302 371 314 1183 2019
          2030 2311 2312 2048 302 303
          366 376 1185 2018 2031 2033
          2032 2313 303 300 362 376
          1186 2025 2023 2032 2026 2314
          140 139 114 352 521 1924
          1919 2090 2315 1794 24 312
          287 365 1226 2038 2037 2063
          2064 2004 26 142 361 217
          525 2039 2040 1642 1677 2239
          142 313 361 362 1228 2041
          2039 2043 2068 2307 142 143
          362 216 526 2042 2043 1676
          1674 2238 143 25 362 297
          527 2045 2042 2316 2020 2001
          25 312 362 297 1225 2044
          2045 2020 2309 2001 27 144
          371 204 528 2046 2047 1558
          2100 1584 144 314 371 366
          1232 2048 2046 2050 2051 2308
          144 145 366 371 529 2049
          2050 2046 2317 2308 145 26
          361 201 530 2040 2052 1606
          1549 2231 313 145 361 366
          1234 2052 2041 2070 2049 2306
          23 27 371 296 531 2047
          2053 2014 2305 1988 314 23
          371 291 1235 2053 2048 2311
          2012 2030 22 136 363 280
          516 2054 2055 1957 1979 1941
          136 316 363 364 1237 2056
          2054 2058 2059 2303 136 137
          364 279 517 2057 2058 1976
          2292 2290 137 23 364 291
          518 2060 2057 2318 2012 1993
          23 314 364 291 1235 2061
          2060 2012 2311 1993 24 146
          365 286 532 2062 2063 2299
          2319 2005 146 147 365 266
          533 2065 2062 1903 1899 2286
          147 317 365 363 1242 2066
          2065 2067 2071 2320 147 22
          363 265 534 2055 2067 1898
          1875 2283 315 314 366 376
          1245 2051 2069 2073 2074 2313
          313 315 366 362 1247 2069
          2070 2068 2072 2321 314 316
          364 376 1248 2059 2061 2074
          2075 2310 317 312 365 376
          1249 2064 2066 2076 2077 2301
          316 317 363 376 1250 2071
          2056 2075 2076 2302 312 315
          362 376 1251 2072 2044 2077
          2073 2314 20 28 353 354
          535 2078 2079 2268 2216 2215
          141 20 353 112 523 2079
          2080 1918 1913 1792 23 138
          350 116 519 2081 2082 1930
          1925 1800 138 151 350 351
          1256 2083 2081 2085 2086 2213
          138 139 351 115 520 2084
          2085 1927 1922 1797 139 140
          351 352 521 2087 2084 2315
          2090 2214 140 141 352 113
          522 2089 2090 1921 1916 1795
          149 140 352 351 1260 2090
          2091 2095 2087 2214 27 23
          350 349 531 2082 2092 2210
          2269 2212 151 27 350 47
          540 2092 2083 1559 1557 1494
          28 148 353 51 536 2093
          2078 1571 1569 1502 148 141
          353 352 1262 2080 2093 2094
          2089 2220 148 149 352 50
          537 2091 2094 1568 1566 1499
          149 150 351 49 538 2088
          2095 1565 1563 1496 150 151
          351 48 539 2086 2088 1562
          1560 1497 30 31 356 355
          557 2113 2114 2236 2264 2242
          31 164 356 100 558 2115
          2113 1867 1862 1759 24 25
          358 359 524 2116 2117 2262
          2237 2246 167 24 358 96
          562 2117 2118 1855 1850 1751
          160 161 360 358 553 2119
          2120 2130 2322 2244 161 166
          360 357 1340 2121 2119 2123
          2128 2245 161 162 357 73
          554 2122 2123 1625 1623 1702
          162 163 357 72 555 2125
          2122 1622 1620 1703 163 164
          357 356 1344 2126 2125 2127
          2115 2243 163 30 356 71
          556 2114 2127 1619 1617 1700
          164 165 357 99 559 2124
          2126 1864 1859 1756 165 166
          357 360 560 2128 2124 2323
          2121 2245 166 167 360 97
          561 2129 2121 1858 1853 1754
          167 160 360 358 1345 2120
          2129 2118 2130 2244 25 160
          358 75 552 2130 2116 1631
          1629 1708 30 158 172 210
          549 2140 1461 1644 2186 1438
          158 342 172 367 1384 2141
          2140 2143 2144 1460 342 30
          172 372 1383 1461 2141 2149
          2147 1479 158 159 367 210
          550 2142 2143 2186 1658 2240
          159 29 367 209 551 2145
          2142 1657 1637 2184 31 30
          372 182 557 2147 2148 2196
          1462 1474 21 168 348 369
          563 2150 2151 2324 2288 2197
          168 344 348 369 1390 2152
          2150 2288 2325 2197 168 169
          372 369 564 2153 2154 2288
          2326 2327 344 168 372 369
          1390 2154 2155 2325 2288 2327
          169 31 372 258 565 2148
          2153 1912 1884 2194 20 130
          370 273 508 2156 2157 1943
          1963 2291 345 20 370 377
          1393 2157 2158 2163 2161 2201
          130 131 370 273 509 2159
          2156 1963 1958 2291 131 21
          348 272 510 2151 2160 1960
          1952 2200 28 20 377 354
          535 2161 2162 2216 2268 2328
          29 152 367 195 541 2164
          2145 1576 1591 2229 152 343
          367 368 1398 2146 2164 2166
          2171 2198 152 153 368 196
          542 2165 2166 1590 2235 1575
          153 347 368 377 1400 2167
          2165 2168 2172 2206 153 28
          377 196 543 2162 2168 2235
          1573 2232 343 342 367 378
          1402 2144 2146 2173 2174 2204
          342 344 372 378 1403 2155
          2149 2174 2176 2202 131 346
          370 348 1405 2169 2159 2160
          2170 2199 346 345 370 379
          1404 2158 2169 2177 2178 2208
          344 346 348 378 1406 2170
          2152 2176 2175 2203 347 343
          368 379 1407 2171 2167 2179
          2180 2207 345 347 377 379
          1408 2172 2163 2178 2179 2329
          343 346 378 379 1410 2175
          2173 2180 2177 2209 368 175
          196 377 1418 1574 1575 2206
          1441 2232 195 174 368 367
          1420 1442 1530 2229 1457 2198
          176 52 377 28 1422 2181
          1440 2330 1572 2162 251 177
          244 354 1424 1445 1821 2331
          2187 1812 183 258 369 372
          1430 1869 1453 1476 2194 2327
          259 180 369 348 1431 1454
          1868 2282 1469 2197 237 170
          230 355 1432 1434 1766 1764
          2183 2261 171 70 355 30
          1436 1697 2182 1463 1616 2236
          173 210 158 367 1414 2186
          2185 1459 2240 2143 177 188
          354 251 1443 1507 2187 1424
          1508 2331 111 176 20 354
          1425 2190 1915 1789 2188 2268
          179 272 370 348 1426 2191
          1466 1471 2200 2199 180 119
          272 348 1448 1073 2192 1469
          2281 2200 181 273 20 370
          1427 1943 2193 1468 2291 2157
          182 258 372 31 1429 2194
          1474 2196 1884 2148 171 101
          31 355 1451 1865 2195 2182
          1762 2264 183 369 348 378
          1453 2197 1477 1484 2332 2203
          367 185 368 379 1458 1465
          2198 2333 1488 2207 30 171
          31 355 1463 2195 557 2236
          2182 2264 176 377 20 354
          1440 2161 2190 2188 2328 2268
          377 178 20 370 1464 2189
          2161 2201 1473 2157 370 187
          348 378 1467 1470 2199 2334
          1483 2203 186 370 377 379
          1472 2201 1480 1486 2208 2329
          184 372 378 342 1475 2202
          1482 2205 2149 2174 372 183
          378 369 1476 1484 2202 2327
          1453 2332 185 367 378 343
          1458 2204 1485 2335 2146 2173
          367 184 378 342 1478 1482
          2204 2144 2205 2174 186 377
          368 379 1480 2206 1481 1486
          2329 2207 187 370 379 378
          1467 2208 1487 1483 2334 2209
          185 378 379 343 1485 2209
          1488 2335 2173 2180 47 349
          27 350 1490 2210 1557 1494
          2212 2092 349 46 27 371
          1491 1556 2210 2336 1555 2047
          46 349 292 371 1491 2211
          1489 1555 2336 2295 48 350
          151 351 1493 2083 1560 1497
          2213 2086 350 190 349 256
          1495 1517 2212 2276 1514 2217
          351 191 350 373 1498 1518
          2213 2219 1513 2218 352 49
          149 351 1500 1565 2091 2214
          1496 2095 352 192 351 373
          1501 1519 2214 2222 1527 2219
          353 50 148 352 1503 1568
          2093 2220 1499 2094 194 353
          354 375 1504 2215 1522 2224
          2225 2274 353 51 354 28
          1502 1506 2215 2078 1571 2216
          52 354 28 176 1505 2216
          1572 1422 2188 2330 190 350
          373 255 1495 2218 1528 1824
          2270 1818 193 352 353 252
          1520 2220 1521 1525 2278 2337
          352 193 373 252 1520 2221
          2222 2278 1525 2275 193 353
          375 252 1521 2225 2223 1525
          2337 1819 194 354 253 375
          1522 2227 1822 2224 2274 1820
          354 188 253 251 1507 2226
          2227 2331 1508 985 189 257
          293 349 1515 1825 1995 1492
          2277 2294 295 203 371 145
          1551 1554 1999 2233 1608 2317
          195 368 152 367 1530 2166
          1591 2229 2198 2164 201 294
          361 145 1581 1996 2231 1606
          2338 2052 295 201 145 366
          1583 1606 2233 2016 2296 2049
          371 203 144 145 1554 2234
          2046 2317 1608 529 30 71
          355 356 1617 1696 2236 2114
          1700 2242 163 72 356 357
          1620 1699 2127 2125 1703 2243
          73 161 360 357 1625 2119
          1706 1702 2123 2245 161 74
          360 358 1626 1705 2119 2322
          1709 2244 74 160 358 161
          1628 2130 1709 1626 553 2322
          75 25 359 358 1631 2237
          1712 1708 2116 2246 25 76
          359 288 1632 1711 2237 2021
          1695 2254 216 297 25 143
          1635 2020 1649 1674 2316 527
          297 216 362 143 1635 2238
          2001 2316 1674 2042 298 217
          361 362 1636 2239 1998 2002
          2241 2307 142 217 362 361
          1677 2241 2043 2039 2239 2307
          223 230 170 355 1687 1434
          1714 1698 2261 2183 356 224
          355 374 1701 1723 2242 2263
          2247 2255 357 225 356 235
          1704 1724 2243 2259 1689 2249
          226 360 358 232 1707 2244
          1726 1718 2257 2251 360 226
          357 234 1707 1725 2245 2258
          1690 2250 359 228 358 233
          1713 1727 2246 2256 1692 2252
          236 223 374 355 1715 2248
          1735 2260 1698 2255 235 224
          356 374 1716 1701 2249 1741
          2247 2263 229 231 359 299
          1721 2253 1728 1694 1744 2297
          239 233 359 358 1738 2256
          1767 1752 2252 2246 232 240
          360 358 1739 1755 2257 2251
          1768 2244 234 241 357 360
          1740 1758 2250 2258 1769 2245
          241 235 357 374 1733 2259
          1758 2265 1741 2266 374 230
          355 237 1742 2261 2255 2267
          1766 1764 288 95 359 24
          1745 1748 2254 2298 1852 2262
          96 359 24 358 1747 2262
          1850 1751 2246 2117 97 358
          167 360 1750 2118 1853 1754
          2244 2129 98 360 166 165
          1753 2121 1856 1861 2323 560
          357 98 165 360 1757 1861
          2124 2245 1753 2323 356 99
          164 357 1760 1864 2115 2243
          1756 2126 242 356 374 357
          1761 2263 1765 1770 2243 2266
          356 100 374 355 1759 1771
          2263 2242 1763 2255 355 100
          31 356 1763 1867 2264 2242
          1759 2113 238 359 231 299
          1749 2253 1774 2003 2297 1744
          245 293 257 349 1777 1825
          1778 1817 2294 2277 112 354
          20 353 1788 2268 1913 1792
          2215 2079 250 354 353 375
          1790 2215 1813 1810 2274 2225
          113 353 141 352 1791 2080
          1916 1795 2220 2089 249 353
          352 375 1793 2220 1814 1784
          2225 2273 351 114 139 352
          1798 1924 2084 2214 1794 2315
          247 351 350 373 1799 2213
          1816 2271 2219 2218 351 115
          350 138 1797 1801 2213 2085
          1927 2081 351 247 352 373
          1799 1815 2214 2219 2271 2222
          246 350 349 256 1802 2212
          1805 1779 2276 2217 350 116
          349 23 1800 1804 2212 2082
          1930 2269 117 349 23 292
          1803 2269 1928 1787 2211 2013
          255 247 350 373 1780 1816
          2270 1818 2271 2218 254 248
          373 352 1781 2272 1823 2279
          1796 2222 375 248 252 352
          1809 1826 1819 2273 1796 2278
          375 244 354 251 1786 1812
          2274 2280 1821 2331 252 254
          373 352 987 1823 2275 2278
          2279 2222 253 251 375 354
          985 2280 1820 2227 2331 2274
          265 289 363 365 1846 2008
          2283 2287 2007 2320 266 24
          287 286 1851 2037 2284 1876
          2299 1149 259 21 348 369
          1870 2151 2282 1868 2324 2197
          21 259 168 369 1870 2285
          563 2324 1868 2288 266 286
          365 146 1876 2005 2286 1903
          2319 2062 24 266 146 286
          1851 1903 532 2299 1876 2319
          369 258 168 169 1869 2289
          2288 2326 1912 564 265 147
          365 363 1898 2065 2287 2283
          2067 2320 23 279 291 137
          1929 1951 2012 518 2292 2318
          291 279 364 137 1951 2290
          1993 2318 2292 2057 280 290
          364 363 1932 1991 2293 1941
          2009 2303 272 131 370 348
          1960 2159 2191 2200 2160 2199
          136 280 364 363 1979 2293
          2058 2054 1941 2303 292 296
          371 27 1158 1988 2295 2304
          2305 2047 294 201 366 145
          1581 2296 2017 2338 1606 2049
          300 365 312 362 2006 2064
          2300 2025 2339 2044 289 365
          376 363 2007 2301 2027 2008
          2320 2302 365 300 376 362
          2006 2026 2301 2339 2025 2314
          301 363 376 364 2010 2302
          2028 2011 2303 2310 292 23
          27 349 2013 531 2304 2211
          2269 2210 303 361 366 362
          2015 2306 2018 2023 2307 2321
          361 294 366 145 1996 2017
          2306 2052 2338 2049 295 371
          366 145 1999 2308 2016 2233
          2317 2049 371 302 366 314
          2019 2031 2308 2048 2312 2051
          288 25 24 359 2021 524
          2298 2254 2237 2262 302 364
          376 366 2029 2310 2033 2031
          2340 2313 364 302 314 366
          2029 2312 2061 2340 2031 2051
          303 366 376 362 2018 2313
          2032 2023 2321 2314 313 361
          362 366 2041 2307 2068 2070
          2306 2321 316 363 364 376
          2056 2303 2059 2075 2302 2310
          317 365 363 376 2066 2320
          2071 2076 2301 2302 314 366
          376 364 2051 2313 2074 2061
          2340 2310 366 315 376 362
          2069 2073 2313 2321 2072 2314
          312 365 376 362 2064 2301
          2077 2044 2339 2314 344 348
          369 378 2152 2197 2325 2176
          2203 2332 169 372 369 258
          2153 2327 2326 1912 2194 1869
          372 344 369 378 2155 2325
          2327 2202 2176 2332 370 345
          377 379 2158 2163 2201 2208
          2178 2329 377 28 354 176
          2162 2216 2328 1440 2330 2188
          343 367 368 379 2146 2198
          2171 2180 2333 2207 153 368
          196 377 2165 1575 2235 2168
          2206 2232 347 368 377 379
          2167 2206 2172 2179 2207 2329
          346 370 348 378 2169 2199
          2170 2175 2334 2203 370 346
          379 378 2169 2177 2208 2334
          2175 2209 367 185 379 343
          1458 1488 2333 2146 2335 2180
          27 349 371 292 2210 2336
          2047 2304 2211 2295 352 353
          252 375 2220 2337 2278 2273
          2225 1819 356 357 235 374
          2243 2259 2249 2263 2266 1741
        </DataArray>
        <DataArray type="Int32" Name="offsets" format="ascii" RangeMin="10" RangeMax="12390">
          10 20 30 40 50 60
          70 80 90 100 110 120
          130 140 150 160 170 180
          190 200 210 220 230 240
          250 260 270 280 290 300
          310 320 330 340 350 360
          370 380 390 400 410 420
          430 440 450 460 470 480
          490 500 510 520 530 540
          550 560 570 580 590 600
          610 620 630 640 650 660
          670 680 690 700 710 720
          730 740 750 760 770 780
          790 800 810 820 830 840
          850 860 870 880 890 900
          910 920 930 940 950 960
          970 980 990 1000 1010 1020
          1030 1040 1050 1060 1070 1080
          1090 1100 1110 1120 1130 1140
          1150 1160 1170 1180 1190 1200
          1210 1220 1230 1240 1250 1260
          1270 1280 1290 1300 1310 1320
          1330 1340 1350 1360 1370 1380
          1390 1400 1410 1420 1430 1440
          1450 1460 1470 1480 1490 1500
          1510 1520 1530 1540 1550 1560
          1570 1580 1590 1600 1610 1620
          1630 1640 1650 1660 1670 1680
          1690 1700 1710 1720 1730 1740
          1750 1760 1770 1780 1790 1800
          1810 1820 1830 1840 1850 1860
          1870 1880 1890 1900 1910 1920
          1930 1940 1950 1960 1970 1980
          1990 2000 2010 2020 2030 2040
          2050 2060 2070 2080 2090 2100
          2110 2120 2130 2140 2150 2160
          2170 2180 2190 2200 2210 2220
          2230 2240 2250 2260 2270 2280
          2290 2300 2310 2320 2330 2340
          2350 2360 2370 2380 2390 2400
          2410 2420 2430 2440 2450 2460
          2470 2480 2490 2500 2510 2520
          2530 2540 2550 2560 2570 2580
          2590 2600 2610 2620 2630 2640
          2650 2660 2670 2680 2690 2700
          2710 2720 2730 2740 2750 2760
          2770 2780 2790 2800 2810 2820
          2830 2840 2850 2860 2870 2880
          2890 2900 2910 2920 2930 2940
          2950 2960 2970 2980 2990 3000
          3010 3020 3030 3040 3050 3060
          3070 3080 3090 3100 3110 3120
          3130 3140 3150 3160 3170 3180
          3190 3200 3210 3220 3230 3240
          3250 3260 3270 3280 3290 3300
          3310 3320 3330 3340 3350 3360
          3370 3380 3390 3400 3410 3420
          3430 3440 3450 3460 3470 3480
          3490 3500 3510 3520 3530 3540
          3550 3560 3570 3580 3590 3600
          3610 3620 3630 3640 3650 3660
          3670 3680 3690 3700 3710 3720
          3730 3740 3750 3760 3770 3780
          3790 3800 3810 3820 3830 3840
          3850 3860 3870 3880 3890 3900
          3910 3920 3930 3940 3950 3960
          3970 3980 3990 4000 4010 4020
          4030 4040 4050 4060 4070 4080
          4090 4100 4110 4120 4130 4140
          4150 4160 4170 4180 4190 4200
          4210 4220 4230 4240 4250 4260
          4270 4280 4290 4300 4310 4320
          4330 4340 4350 4360 4370 4380
          4390 4400 4410 4420 4430 4440
          4450 4460 4470 4480 4490 4500
          4510 4520 4530 4540 4550 4560
          4570 4580 4590 4600 4610 4620
          4630 4640 4650 4660 4670 4680
          4690 4700 4710 4720 4730 4740
          4750 4760 4770 4780 4790 4800
          4810 4820 4830 4840 4850 4860
          4870 4880 4890 4900 4910 4920
          4930 4940 4950 4960 4970 4980
          4990 5000 5010 5020 5030 5040
          5050 5060 5070 5080 5090 5100
          5110 5120 5130 5140 5150 5160
          5170 5180 5190 5200 5210 5220
          5230 5240 5250 5260 5270 5280
          5290 5300 5310 5320 5330 5340
          5350 5360 5370 5380 5390 5400
          5410 5420 5430 5440 5450 5460
          5470 5480 5490 5500 5510 5520
          5530 5540 5550 5560 5570 5580
          5590 5600 5610 5620 5630 5640
          5650 5660 5670 5680 5690 5700
          5710 5720 5730 5740 5750 5760
          5770 5780 5790 5800 5810 5820
          5830 5840 5850 5860 5870 5880
          5890 5900 5910 5920 5930 5940
          5950 5960 5970 5980 5990 6000
          6010 6020 6030 6040 6050 6060
          6070 6080 6090 6100 6110 6120
          6130 6140 6150 6160 6170 6180
          6190 6200 6210 6220 6230 6240
          6250 6260 6270 6280 6290 6300
          6310 6320 6330 6340 6350 6360
          6370 6380 6390 6400 6410 6420
          6430 6440 6450 6460 6470 6480
          6490 6500 6510 6520 6530 6540
          6550 6560 6570 6580 6590 6600
          6610 6620 6630 6640 6650 6660
          6670 6680 6690 6700 6710 6720
          6730 6740 6750 6760 6770 6780
          6790 6800 6810 6820 6830 6840
          6850 6860 6870 6880 6890 6900
          6910 6920 6930 6940 6950 6960
          6970 6980 6990 7000 7010 7020
          7030 7040 7050 7060 7070 7080
          7090 7100 7110 7120 7130 7140
          7150 7160 7170 7180 7190 7200
          7210 7220 7230 7240 7250 7260
          7270 7280 7290 7300 7310 7320
          7330 7340 7350 7360 7370 7380
          7390 7400 7410 7420 7430 7440
          7450 7460 7470 7480 7490 7500
          7510 7520 7530 7540 7550 7560
          7570 7580 7590 7600 7610 7620
          7630 7640 7650 7660 7670 7680
          7690 7700 7710 7720 7730 7740
          7750 7760 7770 7780 7790 7800
          7810 7820 7830 7840 7850 7860
          7870 7880 7890 7900 7910 7920
          7930 7940 7950 7960 7970 7980
          7990 8000 8010 8020 8030 8040
          8050 8060 8070 8080 8090 8100
          8110 8120 8130 8140 8150 8160
          8170 8180 8190 8200 8210 8220
          8230 8240 8250 8260 8270 8280
          8290 8300 8310 8320 8330 8340
          8350 8360 8370 8380 8390 8400
          8410 8420 8430 8440 8450 8460
          8470 8480 8490 8500 8510 8520
          8530 8540 8550 8560 8570 8580
          8590 8600 8610 8620 8630 8640
          8650 8660 8670 8680 8690 8700
          8710 8720 8730 8740 8750 8760
          8770 8780 8790 8800 8810 8820
          8830 8840 8850 8860 8870 8880
          8890 8900 8910 8920 8930 8940
          8950 8960 8970 8980 8990 9000
          9010 9020 9030 9040 9050 9060
          9070 9080 9090 9100 9110 9120
          9130 9140 9150 9160 9170 9180
          9190 9200 9210 9220 9230 9240
          9250 9260 9270 9280 9290 9300
          9310 9320 9330 9340 9350 9360
          9370 9380 9390 9400 9410 9420
          9430 9440 9450 9460 9470 9480
          9490 9500 9510 9520 9530 9540
          9550 9560 9570 9580 9590 9600
          9610 9620 9630 9640 9650 9660
          9670 9680 9690 9700 9710 9720
          9730 9740 9750 9760 9770 9780
          9790 9800 9810 9820 9830 9840
          9850 9860 9870 9880 9890 9900
          9910 9920 9930 9940 9950 9960
          9970 9980 9990 10000 10010 10020
          10030 10040 10050 10060 10070 10080
          10090 10100 10110 10120 10130 10140
          10150 10160 10170 10180 10190 10200
          10210 10220 10230 10240 10250 10260
          10270 10280 10290 10300 10310 10320
          10330 10340 10350 10360 10370 10380
          10390 10400 10410 10420 10430 10440
          10450 10460 10470 10480 10490 10500
          10510 10520 10530 10540 10550 10560
          10570 10580 10590 10600 10610 10620
          10630 10640 10650 10660 10670 10680
          10690 10700 10710 10720 10730 10740
          10750 10760 10770 10780 10790 10800
          10810 10820 10830 10840 10850 10860
          10870 10880 10890 10900 10910 10920
          10930 10940 10950 10960 10970 10980
          10990 11000 11010 11020 11030 11040
          11050 11060 11070 11080 11090 11100
          11110 11120 11130 11140 11150 11160
          11170 11180 11190 11200 11210 11220
          11230 11240 11250 11260 11270 11280
          11290 11300 11310 11320 11330 11340
          11350 11360 11370 11380 11390 11400
          11410 11420 11430 11440 11450 11460
          11470 11480 11490 11500 11510 11520
          11530 11540 11550 11560 11570 11580
          11590 11600 11610 11620 11630 11640
          11650 11660 11670 11680 11690 11700
          11710 11720 11730 11740 11750 11760
          11770 11780 11790 11800 11810 11820
          11830 11840 11850 11860 11870 11880
          11890 11900 11910 11920 11930 11940
          11950 11960 11970 11980 11990 12000
          12010 12020 12030 12040 12050 12060
          12070 12080 12090 12100 12110 12120
          12130 12140 12150 12160 12170 12180
          12190 12200 12210 12220 12230 12240
          12250 12260 12270 12280 12290 12300
          12310 12320 12330 12340 12350 12360
          12370 12380 12390
        </DataArray>
        <DataArray type="UInt8" Name="types" format="ascii" RangeMin="24" RangeMax="24">
          24 24 24 24 24 24
          24 24 24 24 24 24
          24 24 24 24 24 24
          24 24 24 24 24 24
          24 24 24 24 24 24
          24 24 24 24 24 24
          24 24 24 24 24 24
          24 24 24 24 24 24
          24 24 24 24 24 24
          24 24 24 24 24 24
          24 24 24 24 24 24
          24 24 24 24 24 24
          24 24 24 24 24 24
          24 24 24 24 24 24
          24 24 24 24 24 24
          24 24 24 24 24 24
          24 24 24 24 24 24
          24 24 24 24 24 24
          24 24 24 24 24 24
          24 24 24 24 24 24
          24 24 24 24 24 24
          24 24 24 24 24 24
          24 24 24 24 24 24
          24 24 24 24 24 24
          24 24 24 24 24 24
          24 24 24 24 24 24
          24 24 24 24 24 24
          24 24 24 24 24 24
          24 24 24 24 24 24
          24 24 24 24 24 24
          24 24 24 24 24 24
          24 24 24 24 24 24
          24 24 24 24 24 24
          24 24 24 24 24 24
          24 24 24 24 24 24
          24 24 24 24 24 24
          24 24 24 24 24 24
          24 24 24 24 24 24
          24 24 24 24 24 24
          24 24 24 24 24 24
          24 24 24 24 24 24
          24 24 24 24 24 24
          24 24 24 24 24 24
          24 24 24 24 24 24
          24 24 24 24 24 24
          24 24 24 24 24 24
          24 24 24 24 24 24
          24 24 24 24 24 24
          24 24 24 24 24 24
          24 24 24 24 24 24
          24 24 24 24 24 24
          24 24 24 24 24 24
          24 24 24 24 24 24
          24 24 24 24 24 24
          24 24 24 24 24 24
          24 24 24 24 24 24
          24 24 24 24 24 24
          24 24 24 24 24 24
          24 24 24 24 24 24
          24 24 24 24 24 24
          24 24 24 24 24 24
          24 24 24 24 24 24
          24 24 24 24 24 24
          24 24 24 24 24 24
          24 24 24 24 24 24
          24 24 24 24 24 24
          24 24 24 24 24 24
          24 24 24 24 24 24
          24 24 24 24 24 24
          24 24 24 24 24 24
          24 24 24 24 24 24
          24 24 24 24 24 24
          24 24 24 24 24 24
          24 24 24 24 24 24
          24 24 24 24 24 24
          24 24 24 24 24 24
          24 24 24 24 24 24
          24 24 24 24 24 24
          24 24 24 24 24 24
          24 24 24 24 24 24
          24 24 24 24 24 24
          24 24 24 24 24 24
          24 24 24 24 24 24
          24 24 24 24 24 24
          24 24 24 24 24 24
          24 24 24 24 24 24
          24 24 24 24 24 24
          24 24 24 24 24 24
          24 24 24 24 24 24
          24 24 24 24 24 24
          24 24 24 24 24 24
          24 24 24 24 24 24
          24 24 24 24 24 24
          24 24 24 24 24 24
          24 24 24 24 24 24
          24 24 24 24 24 24
          24 24 24 24 24 24
          24 24 24 24 24 24
          24 24 24 24 24 24
          24 24 24 24 24 24
          24 24 24 24 24 24
          24 24 24 24 24 24
          24 24 24 24 24 24
          24 24 24 24 24 24
          24 24 24 24 24 24
          24 24 24 24 24 24
          24 24 24 24 24 24
          24 24 24 24 24 24
          24 24 24 24 24 24
          24 24 24 24 24 24
          24 24 24 24 24 24
          24 24 24 24 24 24
          24 24 24 24 24 24
          24 24 24 24 24 24
          24 24 24 24 24 24
          24 24 24 24 24 24
          24 24 24 24 24 24
          24 24 24 24 24 24
          24 24 24 24 24 24
          24 24 24 24 24 24
          24 24 24 24 24 24
          24 24 24 24 24 24
          24 24 24 24 24 24
          24 24 24 24 24 24
          24 24 24 24 24 24
          24 24 24 24 24 24
          24 24 24 24 24 24
          24 24 24 24 24 24
          24 24 24 24 24 24
          24 24 24 24 24 24
          24 24 24 24 24 24
          24 24 24 24 24 24
          24 24 24 24 24 24
          24 24 24 24 24 24
          24 24 24 24 24 24
          24 24 24 24 24 24
          24 24 24 24 24 24
          24 24 24 24 24 24
          24 24 24 24 24 24
          24 24 24 24 24 24
          24 24 24 24 24 24
          24 24 24 24 24 24
          24 24 24 24 24 24
          24 24 24 24 24 24
          24 24 24 24 24 24
          24 24 24 24 24 24
          24 24 24 24 24 24
          24 24 24 24 24 24
          24 24 24 24 24 24
          24 24 24 24 24 24
          24 24 24 24 24 24
          24 24 24 24 24 24
          24 24 24 24 24 24
          24 24 24 24 24 24
          24 24 24 24 24 24
          24 24 24 24 24 24
          24 24 24 24 24 24
          24 24 24 24 24 24
          24 24 24 24 24 24
          24 24 24 24 24 24
          24 24 24 24 24 24
          24 24 24 24 24 24
          24 24 24 24 24 24
          24 24 24 24 24 24
          24 24 24 24 24 24
          24 24 24 24 24 24
          24 24 24 24 24 24
          24 24 24 24 24 24
          24 24 24 24 24 24
          24 24 24 24 24 24
          24 24 24 24 24 24
          24 24 24 24 24 24
          24 24 24 24 24 24
          24 24 24 24 24 24
          24 24 24 24 24 24
          24 24 24 24 24 24
          24 24 24 24 24 24
          24 24 24 24 24 24
          24 24 24 24 24 24
          24 24 24 24 24 24
          24 24 24 24 24 24
          24 24 24 24 24 24
          24 24 24 24 24 24
          24 24 24 24 24 24
          24 24 24 24 24 24
          24 24 24 24 24 24
          24 24 24 24 24 24
          24 24 24 24 24 24
          24 24 24 24 24 24
          24 24 24 24 24 24
          24 24 24 24 24 24
          24 24 24 24 24 24
          24 24 24 24 24 24
          24 24 24 24 24 24
          24 24 24 24 24 24
          24 24 24 24 24 24
          24 24 24 24 24 24
          24 24 24 24 24 24
          24 24 24 24 24 24
          24 24 24 24 24 24
          24 24 24 24 24 24
          24 24 24 24 24 24
          24 24 24 24 24 24
          24 24 24 24 24 24
          24 24 24 24 24 24
          24 24 24 24 24 24
          24 24 24
        </DataArray>
      </Cells>
    </Piece>
  </UnstructuredGrid>
</VTKFile>
