<?xml version="1.0"?>
<VTKFile type="UnstructuredGrid" version="0.1" byte_order="LittleEndian" header_type="UInt32" compressor="vtkZLibDataCompressor">
  <UnstructuredGrid>
    <Piece NumberOfPoints="356" NumberOfCells="137">
      <PointData Scalars="Contrainte:von Mises">
        <DataArray type="Float32" Name="Contrainte:von Mises" format="ascii" RangeMin="14.78563118" RangeMax="67.58253479">
          37.494663239 17.820749283 20.409122467 37.205936432 37.287929535 36.912773132
          17.795072556 15.221564293 63.149463654 60.385974884 65.964179993 64.702323914
          18.398788452 17.792890549 26.98242569 25.227970123 28.035850525 25.44477272
          16.261529922 20.931562424 65.345565796 64.821540833 64.07472229 63.310001373
          37.144020081 38.440032959 37.006690979 38.514785767 50.369739532 50.975143433
          60.153888702 60.02072525 60.046504974 59.920780182 59.990886688 60.024261475
          60.004749298 60.10893631 57.999755859 53.717430115 35.220329285 37.75466156
          35.765541077 36.519191742 57.349723816 53.175056458 60.033882141 60.037948608
          60.033687592 60.001613617 60.111507416 60.040962219 59.989360809 60.069892883
          56.359394073 50.204753876 39.518070221 45.659568787 55.322307587 43.867698669
          45.044139862 45.283817291 40.146717072 41.914951324 45.669052124 40.562812805
          45.14440155 56.342826843 56.105804443 44.015296936 44.665145874 45.299613953
          59.993751526 59.990207672 29.869831085 37.414260864 19.055171967 37.113304138
          29.837446213 37.252159119 37.197784424 37.12745285 37.008132935 37.320926666
          30.09703064 30.236539841 37.181797028 14.78563118 33.479732513 60.11208725
          66.287261963 32.943325043 64.62613678 62.407436371 59.927101135 60.003955841
          59.981693268 61.517856598 62.589942932 59.881031036 60.003444672 59.917686462
          61.050819397 66.544921875 32.686485291 67.58253479 32.176967621 63.584793091
          17.60761261 29.40545845 34.320579529 33.215675354 29.96544075 25.052770615
          18.4186306 18.086442947 25.055976868 33.960720062 30.152843475 29.563732147
          33.906154633 18.578437805 31.302244186 64.863922119 66.250099182 33.458766937
          66.170722961 62.094055176 59.900112152 60.009876251 59.977485657 62.175136566
          61.526893616 59.908638 59.998001099 59.924957275 61.980056763 65.725593567
          34.24395752 61.79057312 32.59469986 67.335876465 30.723974228 37.351207733
          38.192276001 37.140174866 37.401546478 30.928237915 38.106452942 33.300411224
          62.675037384 49.179981232 62.690574646 60.032688141 59.89705658 60.009807587
          60.003917694 59.942474365 59.835113525 61.690563202 60.020938873 31.756109238
          66.271087646 56.126979828 30.343044281 34.059082031 36.065158844 19.797721863
          33.745456696 29.872333527 36.071346283 29.224061966 64.027832031 56.411026001
          62.224182129 60.022075653 59.915489197 60.003692627 60.003875732 59.934024811
          59.952285767 62.626937866 60.037418365 29.861400604 64.222747803 54.053504944
          41.070617676 29.04565239 51.945354462 45.330387115 58.404632568 55.395420074
          59.986232758 59.927318573 59.998092651 60.02790451 60.123657227 60.002925873
          58.781620026 58.490974426 51.627670288 32.402965546 44.499126434 40.176445007
          37.781368256 38.813014984 32.582439423 40.953102112 47.835384369 58.05846405
          51.229263306 58.048480988 60.41714859 43.920116425 45.814689636 27.472587585
          38.876403809 37.686656952 37.728462219 39.083873749 46.451560974 50.920574188
          49.118057251 39.142536163 43.564838409 40.592212677 43.649768829 49.452156067
          47.402481079 39.217510223 41.977180481 39.210186005 41.248752594 45.186782837
          45.961959839 48.909870148 31.085618973 58.241687775 51.200267792 39.382598877
          38.04668045 37.976062775 39.330600739 32.188488007 46.252189636 50.676555634
          58.184883118 58.96812439 60.036373138 60.032337189 59.998764038 60.081550598
          60.038192749 60.272693634 58.987064362 59.10717392 46.831390381 31.728597641
          52.209396362 39.809318542 37.600948334 38.770187378 39.717498779 31.71963501
          49.286491394 51.693729401 58.673061371 58.631568909 60.255119324 58.555744171
          49.763259888 43.787212372 38.060153961 38.089141846 43.908470154 49.618156433
          49.28453064 43.322238922 38.598136902 38.893829346 43.314582825 49.471038818
          45.932186127 46.131713867 59.991481781 59.993263245 60.004364014 60.002723694
          60.003620148 60.003749847 29.55194664 38.300617218 37.943054199 37.774345398
          37.845157623 38.45905304 37.696716309 27.682052612 46.120311737 50.918437958
          42.979671478 56.894824982 58.887962341 60.049976349 60.079330444 59.996894836
          60.02596283 60.237323761 58.987136841 58.741676331 60.006507874 44.91160202
          50.970211029 32.636253357 38.712341309 38.644115448 39.706825256 38.197746277
          39.451953888 40.217514038 33.039768219 47.061271667 50.85912323 59.052574158
          58.642681122 59.993343353 58.655151367 57.930519104 60.195205688 60.00390625
          60.024173737 45.665611267 51.581848145 33.801914215 46.85817337 42.522937775
          59.993450165 55.61580658 44.45741272 43.859443665 44.631343842 46.419059753
          50.438163757 48.815238953 43.360527039 49.042060852 46.714801788 43.823345184
          42.939846039 41.118068695 42.216991425 40.643238068 43.728561401 46.03155899
          43.386363983 43.868824005
        </DataArray>
      </PointData>
      <CellData>
      </CellData>
      <Points>
        <DataArray type="Float32" Name="Points" NumberOfComponents="3" format="ascii" RangeMin="0.99999976158" RangeMax="75.907846396">
          74.999992371 9 0 46 9 0
          46 9 4 74.999992371 9 4
          74.999992371 -11 0 74.999992371 -11 4
          46 -11 0 46 -11 4
          40 -7.2499995232 0 40 -7.2499995232 4
          -40.000003815 -7.2499995232 0 -40.000003815 -7.2499995232 4
          -46 -11 0 -46 -11 4
          -75.000007629 -11 0 -75.000007629 -11 4
          -75.000007629 9 0 -75.000007629 9 4
          -46 9 0 -46 9 4
          -40.000003815 5.25 0 -40.000003815 5.25 4
          40 5.25 0 40 5.25 4
          60.5 9 0 60.5 9 4
          60.5 -11 0 60.5 -11 4
          43.969543457 -8.4821548462 0 43.969543457 -8.4821548462 4
          23.999998093 -7.2499995232 0 7.9999980927 -7.2499995232 0
          -8.0000009537 -7.2499995232 0 -24 -7.2499995232 0
          -24 -7.2499995232 4 -8.0000009537 -7.2499995232 4
          7.9999980927 -7.2499995232 4 23.999998093 -7.2499995232 4
          -43.969543457 -8.4821548462 0 -43.969543457 -8.4821548462 4
          -60.5 -11 0 -60.5 -11 4
          -60.5 9 0 -60.5 9 4
          -43.969543457 6.482155323 0 -43.969543457 6.482155323 4
          -24 5.25 0 -8.0000009537 5.25 0
          7.9999980927 5.25 0 23.999998093 5.25 0
          23.999998093 5.25 4 7.9999980927 5.25 4
          -8.0000009537 5.25 4 -24 5.25 4
          43.969543457 6.482155323 0 43.969543457 6.482155323 4
          51.655128479 4.5322113037 4 46.396961212 -0.50022441149 4
          -36.380821228 -1.000312686 4 -49.11566925 2.6968979836 4
          -55.680179596 -1.0009329319 4 -49.11605835 -4.6980600357 4
          50.554218292 -6.2330336571 4 55.254444122 -1.0687010288 4
          49.120731354 2.6973404884 0 55.68296051 -1.0002799034 0
          49.118114471 -4.6979579926 0 36.384731293 -1.0000844002 0
          -36.380821228 -0.99968707561 0 -49.11566925 -4.6968975067 0
          -55.680179596 -0.99906682968 0 -49.11605835 2.6980602741 0
          -1.1175872032e-06 -0.99999976158 4 -1.1175872032e-06 -0.99999976158 0
          53.25 9 0 67.75 9 0
          46 9 2 67.75 9 4
          53.25 9 4 74.999992371 9 2
          74.999992371 -0.99999976158 0 74.999992371 -0.99999976158 4
          74.999992371 -11 2 67.75 -11 0
          53.25 -11 0 53.25 -11 4
          67.75 -11 4 46 -11 2
          44.984775543 -9.7410774231 0 41.984771729 -7.8660774231 0
          41.984771729 -7.8660774231 4 44.984775543 -9.7410774231 4
          40 -7.2499995232 2 31.999998093 -7.2499995232 0
          15.999999046 -7.2499995232 0 -1.1175872032e-06 -7.2499995232 0
          -16 -7.2499995232 0 -32 -7.2499995232 0
          -32 -7.2499995232 4 -16 -7.2499995232 4
          -1.1175872032e-06 -7.2499995232 4 15.999999046 -7.2499995232 4
          31.999998093 -7.2499995232 4 -40.000003815 -7.2499995232 2
          -44.984775543 -9.7410774231 0 -41.984771729 -7.8660774231 0
          -44.984775543 -9.7410774231 4 -41.984771729 -7.8660774231 4
          -46 -11 2 -53.25 -11 0
          -67.75 -11 0 -67.75 -11 4
          -53.25 -11 4 -75.000007629 -11 2
          -75.000007629 -0.99999976158 0 -75.000007629 -0.99999976158 4
          -75.000007629 9 2 -67.75 9 0
          -53.25 9 0 -53.25 9 4
          -67.75 9 4 -46 9 2
          -44.984775543 7.7410774231 0 -41.984771729 5.8660774231 0
          -41.984771729 5.8660774231 4 -44.984775543 7.7410774231 4
          -40.000003815 5.25 2 -32 5.25 0
          -16 5.25 0 -1.1175872032e-06 5.25 0
          15.999999046 5.25 0 31.999998093 5.25 0
          31.999998093 5.25 4 15.999999046 5.25 4
          -1.1175872032e-06 5.25 4 -16 5.25 4
          -32 5.25 4 40 5.25 2
          44.984775543 7.7410774231 0 41.984771729 5.8660774231 0
          44.984775543 7.7410774231 4 41.984771729 5.8660774231 4
          53.25 9 2 67.75 9 2
          60.5 9 2 74.999992371 -0.99999976158 2
          67.75 -11 2 53.25 -11 2
          60.5 -11 2 44.984775543 -9.7410774231 2
          41.984771729 -7.8660774231 2 43.969543457 -8.4821548462 2
          31.999998093 -7.2499995232 2 23.999998093 -7.2499995232 2
          15.999999046 -7.2499995232 2 7.9999980927 -7.2499995232 2
          -1.1175872032e-06 -7.2499995232 2 -16 -7.2499995232 2
          -24 -7.2499995232 2 -32 -7.2499995232 2
          -8.0000009537 -7.2499995232 2 -44.984775543 -9.7410774231 2
          -41.984771729 -7.8660774231 2 -43.969543457 -8.4821548462 2
          -53.25 -11 2 -67.75 -11 2
          -60.5 -11 2 -75.000007629 -0.99999976158 2
          -67.75 9 2 -53.25 9 2
          -60.5 9 2 -44.984775543 7.7410774231 2
          -41.984771729 5.8660774231 2 -43.969543457 6.482155323 2
          -32 5.25 2 -24 5.25 2
          -16 5.25 2 -8.0000009537 5.25 2
          -1.1175872032e-06 5.25 2 15.999999046 5.25 2
          23.999998093 5.25 2 31.999998093 5.25 2
          7.9999980927 5.25 2 44.984775543 7.7410774231 2
          41.984771729 5.8660774231 2 43.969543457 6.482155323 2
          47.812339783 5.507183075 4 48.827568054 6.7661056519 4
          43.198474884 2.3748879433 4 45.183254242 2.9909656048 4
          31.999998093 -0.99999976158 4 40 -0.99999976158 4
          15.999999046 -0.99999976158 4 23.999998093 -0.99999976158 4
          3.9999988079 -4.125 4 7.9999980927 -0.99999976158 4
          -16 -0.99999976158 4 -8.0000009537 -0.99999976158 4
          -38.190410614 2.1248435974 4 -30.190410614 2.1248435974 4
          -44.557834625 3.9734492302 4 -47.557834625 5.848449707 4
          -46.542606354 4.5895261765 4 -54.807834625 5.848449707 4
          -65.34009552 3.9995336533 4 -65.34009552 -6.0004663467 4
          -47.55802536 -7.8490304947 4 -54.808029175 -7.8490304947 4
          -46.542800903 -6.5901079178 4 -38.190410614 -4.1251564026 4
          -44.558029175 -5.9740300179 4 -30.190410614 -4.1251564026 4
          -24 -0.99999976158 4 47.261882782 -7.3575944901 4
          45.183254242 -4.4911899567 4 48.277111053 -8.6165161133 4
          55.527111053 -8.6165161133 4 67.75 -0.99999976158 4
          60.5 -0.99999976158 4 56.077568054 6.7661056519 4
          49.026046753 2.0159938335 4 43.198474884 -3.8751122952 4
          -42.748241425 0.84829264879 4 -58.090091705 3.9995336533 4
          -52.397922516 0.84798246622 4 -58.090091705 -6.0004663467 4
          -52.398117065 -2.8494963646 4 -42.748443604 -2.8491864204 4
          48.475589752 -3.3666288853 4 57.877220154 -6.0343503952 4
          52.904335022 -3.6508674622 4 57.877220154 3.9656496048 4
          53.454788208 1.7317552567 4 50.825698853 -0.78446269035 4
          -49.1158638 -1.0005810261 4 46.545139313 4.5897479057 0
          47.56036377 5.8486704826 0 38.192363739 2.1249577999 0
          44.56036377 3.9736702442 0 54.81036377 5.8486704826 0
          65.34148407 3.9998600483 0 65.34148407 -6.0001397133 0
          54.809055328 -7.8489789963 0 47.559055328 -7.8489789963 0
          46.543827057 -6.5900564194 0 44.559059143 -5.9739785194 0
          38.192363739 -4.1250424385 0 30.192363739 -4.1250424385 0
          15.999999046 -0.99999976158 0 7.9999980927 -0.99999976158 0
          -4.0000014305 2.125 0 -8.0000009537 -0.99999976158 0
          -16 -0.99999976158 0 -24 -0.99999976158 0
          -30.190410614 -4.1248435974 0 -38.190410614 -4.1248435974 0
          -46.542606354 -6.5895266533 0 -47.557834625 -7.8484487534 0
          -44.557834625 -5.9734487534 0 -54.807834625 -7.8484487534 0
          -65.34009552 -5.9995336533 0 -65.34009552 4.0004668236 0
          -54.808029175 5.8490304947 0 -47.55802536 5.8490304947 0
          -46.542800903 4.5901074409 0 -44.558029175 3.9740302563 0
          -38.190410614 2.1251564026 0 -30.190410614 2.1251564026 0
          23.999998093 -0.99999976158 0 30.192363739 2.1249577999 0
          42.752731323 0.84862792492 0 52.401844025 0.84853023291 0
          58.09147644 3.9998600483 0 58.09147644 -6.0001397133 0
          52.400535583 -2.849118948 0 42.751422882 -2.8490211964 0
          -42.748241425 -2.8482925892 0 -52.397922516 -2.8479824066 0
          -58.090091705 -5.9995336533 0 -58.090091705 4.0004668236 0
          -52.398117065 0.84949672222 0 -42.748443604 0.84918653965 0
          49.119419098 -1.0003087521 0 -49.1158638 -0.99941861629 0
          -4.0000014305 2.125 4 3.9999988079 -4.125 0
          3.9999988079 2.125 4 -4.0000014305 -4.125 4
          -4.0000014305 -4.125 0 3.9999988079 2.125 0
          48.827568054 6.7661056519 2 58.09147644 3.9998600483 2
          65.34148407 3.9998600483 2 56.077568054 6.7661056519 2
          65.34148407 -6.0001397133 2 58.09147644 -6.0001397133 2
          55.527111053 -8.6165161133 2 48.277111053 -8.6165161133 2
          45.183254242 -4.4911899567 2 43.198474884 -3.8751122952 2
          47.261882782 -7.3575944901 2 38.192363739 -4.1250424385 2
          30.192363739 -4.1250424385 2 7.9999980927 -0.99999976158 2
          15.999999046 -0.99999976158 2 3.9999988079 -4.125 2
          -16 -0.99999976158 2 -24 -0.99999976158 2
          -30.190410614 -4.1248435974 2 -38.190410614 -4.1251564026 2
          -4.0000014305 -4.125 2 -46.542606354 -6.5895266533 2
          -44.557834625 -5.9734487534 2 -47.55802536 -7.8490304947 2
          -58.090091705 -6.0004663467 2 -65.34009552 -6.0004663467 2
          -54.808029175 -7.8490304947 2 -65.34009552 4.0004668236 2
          -58.090091705 4.0004668236 2 -54.808029175 5.8490304947 2
          -47.55802536 5.8490304947 2 -46.542800903 4.5901074409 2
          -44.557834625 3.9734492302 2 -38.190410614 2.1251564026 2
          -30.190410614 2.1251564026 2 -4.0000014305 2.125 2
          30.192363739 2.1249577999 2 38.192363739 2.1249577999 2
          23.999998093 -0.99999976158 2 3.9999988079 2.125 2
          -8.0000009537 -0.99999976158 2 46.545139313 4.5897479057 2
          43.198474884 2.3748879433 2 47.56036377 5.8486704826 2
          45.183254242 2.9909656048 2 50.387931824 3.6147761345 2
          -1.1175872032e-06 -0.99999976158 2 -36.380821228 -0.99999976158 2
          -49.1158638 2.697479248 2 -55.680179596 -0.99999976158 2
          -49.1158638 -4.6974787712 2 47.758842468 1.0985579491 2
          41.390842438 -0.75015437603 2 -42.748241425 0.84860539436 2
          -52.397922516 0.84891557693 2 -42.748241425 -2.8486051559 2
          47.757534027 -2.5990912914 2 46.543827057 -6.5900564194 2
          49.836166382 -5.4654955864 2 53.118591309 -3.6166567802 2
          55.468704224 -1.0344903469 2 53.669048309 1.7659658194 2
          52.187583923 0.8143196106 2 -49.11566925 -0.99999976158 2
          -52.397922516 -2.8489151001 2 52.186275482 -2.8833293915 2
        </DataArray>
      </Points>
      <Cells>
        <DataArray type="Int32" Name="connectivity" format="ascii" RangeMin="0" RangeMax="355">
          1 25 2 56 142 78
          76 290 219 187 24 0
          25 65 75 143 144 272
          240 291 3 25 0 65
          77 143 79 292 291 240
          25 1 24 56 142 74
          144 219 290 293 4 5
          0 65 82 145 80 241
          294 240 0 5 3 65
          145 81 79 240 294 292
          4 27 5 65 146 86
          82 241 295 294 26 6
          27 62 84 147 148 296
          297 216 7 27 6 62
          85 147 87 215 216 297
          27 4 26 65 146 83
          148 295 241 273 6 29
          7 62 149 91 87 297
          213 215 28 8 29 57
          89 150 151 298 299 214
          9 29 8 57 90 150
          92 221 214 299 29 6
          28 62 149 88 151 213
          297 300 8 37 9 67
          152 102 92 246 302 301
          31 37 30 51 154 153
          94 303 192 304 32 36
          31 73 156 155 95 288
          305 285 32 33 35 53
          96 157 160 306 307 196
          33 10 34 68 97 159
          158 254 255 308 11 34
          10 58 98 159 103 209
          211 309 34 35 33 53
          99 157 158 212 196 307
          36 32 35 72 156 160
          100 194 310 287 37 31
          36 51 154 155 101 192
          303 195 37 8 30 67
          152 93 153 302 246 247
          38 12 39 69 104 161
          163 256 257 311 10 39
          11 69 162 107 103 258
          311 312 13 39 12 61
          106 161 108 206 208 313
          39 10 38 69 162 105
          163 311 258 256 12 41
          13 61 164 112 108 313
          207 206 40 14 41 60
          110 165 166 314 315 225
          15 41 14 60 111 165
          113 205 225 315 41 12
          40 61 164 109 166 207
          313 316 16 17 14 70
          116 167 114 261 317 260
          14 17 15 60 167 115
          113 315 204 205 16 43
          17 70 168 120 116 261
          318 317 42 18 43 71
          118 169 170 262 263 319
          19 43 18 71 119 169
          121 320 319 263 43 16
          42 70 168 117 170 318
          261 279 18 45 19 71
          171 125 121 263 321 320
          44 20 45 71 123 172
          173 264 265 321 21 45
          20 59 124 172 126 200
          202 322 45 18 44 71
          171 122 173 321 263 264
          20 53 21 68 174 136
          126 266 324 323 47 53
          46 32 176 175 128 251
          306 252 48 52 47 73
          178 177 129 289 325 250
          48 49 51 30 130 179
          182 248 268 304 49 22
          50 67 131 181 180 269
          237 326 23 50 22 67
          132 181 137 327 326 237
          50 51 49 30 133 179
          180 328 304 268 52 48
          51 73 178 182 134 325
          289 329 53 47 52 32
          176 177 135 306 251 330
          53 20 46 68 174 127
          175 324 266 267 54 1
          55 64 138 183 185 235
          236 331 22 55 23 57
          184 141 137 332 189 188
          2 55 1 64 140 183
          76 333 331 236 55 22
          54 57 184 139 185 189
          332 334 2 56 55 64
          187 186 140 333 335 331
          23 9 50 67 191 190
          132 327 301 326 50 37
          51 30 193 192 133 328
          153 304 51 72 52 73
          286 284 134 329 336 325
          72 51 36 73 286 195
          194 336 329 305 52 35
          53 32 197 196 135 330
          160 306 53 58 21 68
          199 198 136 324 337 323
          45 59 19 71 202 201
          125 321 338 320 19 59
          43 71 201 203 119 320
          338 319 43 60 17 70
          223 204 120 318 339 317
          39 61 11 69 208 210
          107 311 340 312 72 35
          52 32 287 197 284 310
          160 330 37 50 9 67
          193 190 102 302 326 301
          27 3 5 65 217 81
          86 295 292 294 3 27
          25 65 217 218 77 292
          295 291 56 57 55 64
          220 189 186 335 341 331
          57 9 23 67 221 191
          188 342 301 327 58 59
          21 68 222 200 198 337
          343 323 53 34 58 68
          212 211 199 324 308 337
          59 60 43 70 224 223
          203 344 339 318 60 61
          41 40 226 207 225 314
          316 166 61 58 11 69
          227 209 210 340 345 312
          57 62 29 66 228 213
          214 346 348 347 62 63
          27 65 230 229 216 349
          350 295 27 63 25 65
          229 231 218 295 350 291
          25 63 56 65 231 232
          219 291 350 351 56 63
          57 64 232 233 220 335
          352 341 58 61 59 69
          227 234 222 345 340 353
          59 61 60 69 234 226
          224 353 340 354 57 63
          62 66 233 230 228 346
          355 348 54 22 64 57
          139 238 235 334 332 341
          24 1 64 56 74 236
          239 293 290 335 6 26
          66 62 84 242 243 297
          296 348 28 6 66 62
          88 243 244 300 297 348
          8 28 66 57 89 244
          245 299 298 346 31 30
          48 51 94 248 249 303
          304 182 32 73 47 52
          288 250 251 330 325 177
          33 32 46 53 96 252
          253 307 306 175 40 12
          69 61 109 257 259 316
          313 340 14 40 70 60
          110 278 260 315 314 339
          48 73 31 51 289 285
          249 182 329 303 64 22
          67 57 238 237 270 341
          332 342 24 64 65 56
          239 271 272 293 335 351
          26 65 66 62 273 274
          242 296 349 348 8 66
          67 57 245 275 246 299
          346 342 30 67 49 50
          247 269 268 328 326 180
          33 46 68 53 253 267
          254 307 175 324 10 68
          69 58 255 276 258 309
          337 345 40 69 70 60
          259 277 278 314 354 339
          42 70 71 43 279 280
          262 170 318 319 20 71
          68 59 265 281 266 322
          338 343 64 67 66 57
          270 275 282 341 342 346
          65 64 66 63 271 282
          274 350 352 355 69 68
          71 59 276 281 283 353
          343 338 70 69 71 59
          277 283 280 344 353 338
          2 1 56 64 76 290
          187 333 236 335 25 24
          65 56 144 272 291 219
          293 351 27 26 62 65
          148 296 216 295 273 349
          29 28 57 66 151 298
          214 347 244 346 8 9
          57 67 92 221 299 246
          301 342 28 29 62 66
          151 213 300 244 347 348
          32 36 73 72 156 305
          288 310 194 336 36 31
          73 51 155 285 305 195
          303 329 34 33 68 53
          158 254 308 212 307 324
          10 34 68 58 159 308
          255 309 211 337 10 11
          58 69 103 209 309 258
          312 345 30 37 67 50
          153 302 247 328 193 326
          12 39 69 61 161 311
          257 313 208 340 17 14
          70 60 167 260 317 204
          315 339 20 45 71 59
          172 321 265 322 202 338
          20 21 59 68 126 200
          322 266 323 343 22 23
          67 57 137 327 237 332
          188 342 55 54 64 57
          185 235 331 189 334 341
          72 52 73 32 284 325
          336 310 330 288 59 43
          71 70 203 319 338 344
          318 280 58 59 68 69
          222 343 337 345 353 276
          59 60 70 69 224 339
          344 353 354 277 60 61
          40 69 226 316 314 354
          340 259 62 63 65 66
          230 350 349 348 355 274
          63 56 65 64 232 351
          350 352 335 271 63 57
          64 66 233 341 352 355
          346 282
        </DataArray>
        <DataArray type="Int32" Name="offsets" format="ascii" RangeMin="10" RangeMax="1370">
          10 20 30 40 50 60
          70 80 90 100 110 120
          130 140 150 160 170 180
          190 200 210 220 230 240
          250 260 270 280 290 300
          310 320 330 340 350 360
          370 380 390 400 410 420
          430 440 450 460 470 480
          490 500 510 520 530 540
          550 560 570 580 590 600
          610 620 630 640 650 660
          670 680 690 700 710 720
          730 740 750 760 770 780
          790 800 810 820 830 840
          850 860 870 880 890 900
          910 920 930 940 950 960
          970 980 990 1000 1010 1020
          1030 1040 1050 1060 1070 1080
          1090 1100 1110 1120 1130 1140
          1150 1160 1170 1180 1190 1200
          1210 1220 1230 1240 1250 1260
          1270 1280 1290 1300 1310 1320
          1330 1340 1350 1360 1370
        </DataArray>
        <DataArray type="UInt8" Name="types" format="ascii" RangeMin="24" RangeMax="24">
          24 24 24 24 24 24
          24 24 24 24 24 24
          24 24 24 24 24 24
          24 24 24 24 24 24
          24 24 24 24 24 24
          24 24 24 24 24 24
          24 24 24 24 24 24
          24 24 24 24 24 24
          24 24 24 24 24 24
          24 24 24 24 24 24
          24 24 24 24 24 24
          24 24 24 24 24 24
          24 24 24 24 24 24
          24 24 24 24 24 24
          24 24 24 24 24 24
          24 24 24 24 24 24
          24 24 24 24 24 24
          24 24 24 24 24 24
          24 24 24 24 24 24
          24 24 24 24 24 24
          24 24 24 24 24 24
          24 24 24 24 24 24
          24 24 24 24 24
        </DataArray>
      </Cells>
    </Piece>
  </UnstructuredGrid>
</VTKFile>
