<?xml version="1.0"?>
<VTKFile type="UnstructuredGrid" version="0.1" byte_order="LittleEndian" header_type="UInt32" compressor="vtkZLibDataCompressor">
  <UnstructuredGrid>
    <Piece NumberOfPoints="3296" NumberOfCells="1812">
      <PointData Scalars="Contrainte:von Mises">
        <DataArray type="Float32" Name="Contrainte:von Mises" format="ascii" RangeMin="0.90737444162" RangeMax="72.525772095">
          46.531539917 42.73166275 45.755485535 45.417957306 51.243202209 54.266807556
          54.147838593 51.250026703 9.449877739 23.882463455 19.777835846 19.655395508
          22.963983536 8.6599283218 8.6236572266 21.173458099 19.862104416 25.5111866
          19.824922562 8.3985776901 53.322105408 53.020870209 52.286079407 55.921726227
          40.156574249 39.030109406 42.809490204 42.034908295 44.870685577 44.694667816
          38.743537903 38.015674591 36.764396667 28.034729004 18.4454422 10.605679512
          5.6784052849 3.4794406891 5.3982996941 11.004957199 18.114091873 28.422086716
          34.998382568 26.670625687 18.529335022 11.077618599 5.8314785957 3.9682414532
          5.796713829 10.954442024 18.21307373 26.940839767 54.570423126 39.258529663
          31.275083542 26.346525192 31.295444489 32.419410706 30.603408813 40.718616486
          52.550479889 52.310024261 53.292995453 52.590774536 42.708053589 33.059806824
          30.494791031 29.254928589 29.86485672 33.561172485 38.804927826 52.572937012
          51.777767181 48.277057648 11.481738091 31.333715439 16.394828796 8.8060855865
          19.587295532 19.596170425 19.553663254 16.621587753 8.9338350296 13.352377892
          29.092021942 28.029752731 12.389068604 15.40711689 14.994984627 46.353538513
          56.460601807 58.53748703 56.738636017 46.29164505 15.451752663 14.280506134
          40.723445892 54.707004547 50.368888855 50.325523376 50.527713776 51.799182892
          50.416210175 52.510349274 42.789348602 19.854728699 20.521314621 20.051498413
          25.815431595 33.188354492 36.170127869 33.551532745 25.523872375 18.645792007
          19.720849991 40.521419525 53.874557495 52.054130554 55.461875916 52.391124725
          51.087787628 49.471904755 54.041374207 39.864654541 20.135887146 17.859012604
          24.785999298 32.850791931 35.946773529 33.141288757 24.843460083 17.668626785
          20.797590256 19.860370636 19.413604736 13.785876274 14.933799744 46.278579712
          56.451786041 58.474575043 56.894138336 46.983142853 15.244020462 19.849433899
          29.311319351 11.372958183 7.2489695549 15.963140488 7.3706350327 17.550395966
          54.223682404 33.844360352 26.033685684 15.061579704 14.564490318 25.450563431
          34.562847137 48.262424469 31.821527481 25.382698059 15.461770058 15.576766014
          24.429893494 30.669553757 40.046470642 45.864875793 41.846038818 62.304538727
          53.236251831 58.590450287 59.832324982 45.496547699 44.498146057 62.87694931
          58.258617401 49.461723328 48.815563202 52.178226471 53.135829926 50.603168488
          45.862140656 47.239055634 48.691497803 52.068744659 53.671981812 51.140514374
          45.738044739 57.496124268 61.779907227 13.624752998 6.6291904449 9.4539546967
          13.615227699 8.8569793701 13.288785934 43.967517853 43.314144135 34.735881805
          44.820701599 43.545146942 14.068134308 10.106657028 13.243654251 13.600379944
          9.8367490768 14.492432594 20.059480667 20.496419907 10.869532585 5.7754607201
          2.573420763 2.333889246 5.0939154625 10.072181702 13.355446815 43.502986908
          21.017408371 7.9674625397 5.2050204277 7.5420646667 9.6610059738 17.918413162
          30.204200745 46.722507477 37.033782959 17.199476242 8.0302085876 5.5394868851
          5.6302032471 7.640768528 17.657331467 31.451885223 46.057998657 46.887115479
          19.341173172 32.63684845 36.514537811 22.650276184 15.854009628 12.563796997
          18.350841522 20.789669037 20.710226059 12.809105873 16.617095947 34.198795319
          28.389024734 30.038059235 33.31734848 27.831447601 28.382083893 29.870246887
          30.7514534 28.649877548 23.655864716 24.640810013 27.281553268 29.613918304
          30.891677856 34.719467163 17.604429245 18.255050659 21.737565994 29.621040344
          31.971830368 31.379896164 29.217569351 21.424282074 16.45208931 32.293445587
          32.766391754 25.563091278 22.644205093 22.933355331 22.245321274 31.574821472
          29.851869583 27.858739853 31.646900177 29.520721436 27.697563171 20.625305176
          20.458654404 23.712532043 28.887647629 30.682027817 28.246149063 18.921300888
          18.34249115 27.79970932 34.155223846 34.262264252 28.151062012 18.887914658
          18.856298447 20.824878693 33.217910767 30.571487427 26.260324478 22.745164871
          22.277721405 26.129264832 29.442361832 31.043956757 29.978809357 18.663568497
          19.634744644 29.626728058 34.707733154 35.171443939 29.493406296 24.366580963
          18.869234085 16.720020294 23.588813782 38.553451538 37.160938263 37.47341156
          37.742828369 41.079746246 41.338241577 36.693775177 21.025995255 8.1456985474
          13.167951584 28.250099182 31.421888351 30.823862076 30.749353409 30.34923172
          24.908943176 23.539237976 28.416946411 33.606140137 36.627738953 19.088827133
          15.794826508 20.834526062 13.347201347 18.044565201 13.26774025 21.770917892
          19.16510582 31.742235184 17.675016403 48.51947403 33.432144165 28.363414764
          27.691015244 29.854259491 23.616069794 38.25151062 39.176204681 36.832870483
          36.613773346 36.839412689 34.374832153 38.029987335 20.273572922 10.575058937
          27.321090698 31.775630951 33.645626068 33.630851746 28.872552872 26.373737335
          21.941455841 11.151506424 4.9327054024 8.0413703918 18.019521713 19.600568771
          19.562349319 15.767784119 46.670444489 48.286956787 45.563579559 53.597320557
          49.848258972 49.804199219 48.836437225 49.343757629 44.663757324 47.708969116
          47.949035645 50.85055542 53.254669189 33.746040344 18.190294266 22.573286057
          40.856182098 53.467876434 59.574951172 53.703361511 37.072631836 32.757629395
          43.366931915 47.660961151 48.429611206 29.401496887 16.918552399 25.643259048
          43.486980438 52.236248016 57.358436584 39.325691223 34.434761047 37.28944397
          48.653713226 63.737594604 24.996635437 15.044784546 14.379681587 14.131456375
          22.845405579 36.22278595 37.322238922 24.909391403 23.564441681 24.106977463
          29.63028717 44.315830231 46.416004181 47.943325043 48.993644714 45.462501526
          53.428104401 48.774162292 49.761745453 47.091098785 49.781303406 46.259304047
          47.947975159 50.96635437 23.277442932 17.021133423 9.4859542847 9.8628311157
          18.331899643 30.738355637 39.807556152 38.557941437 22.49096489 21.673265457
          30.653450012 29.326768875 10.947328568 6.7154626846 7.8007888794 8.9887504578
          7.0222978592 4.6410884857 7.7518773079 5.3836746216 5.4521145821 5.3362045288
          5.2459425926 15.405584335 36.372116089 5.7766442299 15.235987663 36.331409454
          32.832180023 18.55452919 11.57614994 8.429315567 12.043452263 18.627754211
          28.127119064 30.249040604 31.088218689 36.39691925 37.473236084 28.748197556
          38.501068115 37.076385498 38.34041214 32.927158356 39.167545319 38.886569977
          7.2509474754 6.6192584038 6.3979444504 32.425132751 30.408664703 20.502958298
          11.993010521 11.1304636 14.329289436 36.562854767 34.251060486 34.141429901
          29.247337341 28.03253746 34.759716034 39.588943481 39.587791443 29.086959839
          36.485015869 30.643693924 22.517343521 38.349414825 34.029315948 32.146888733
          35.730575562 32.059238434 37.845798492 8.8519496918 2.1857123375 13.737565994
          32.266738892 26.099863052 16.255254745 14.749287605 14.908498764 39.464694977
          4.9256749153 36.572486877 17.710510254 37.524909973 41.097770691 36.904289246
          23.328308105 14.762705803 8.2657909393 4.5025844574 4.2041330338 8.0659503937
          15.406103134 23.465177536 36.11567688 39.694553375 39.729576111 36.721176147
          22.968273163 15.444703102 8.4532394409 4.2692146301 4.1907463074 8.2191810608
          15.09732151 22.417125702 35.37727356 54.794124603 51.363929749 34.919723511
          28.59287262 27.08114624 37.375026703 38.089775085 41.035324097 48.69348526
          60.073692322 48.464267731 52.882099152 48.894256592 51.248329163 52.990276337
          51.195529938 37.93699646 30.568325043 28.718524933 27.972618103 29.733419418
          41.882556915 48.283771515 54.473262787 47.805580139 54.556098938 47.020160675
          54.049674988 7.3150453568 19.603235245 41.720691681 20.585578918 11.507838249
          6.5896248817 22.427078247 19.211862564 19.530040741 19.681900024 19.07248497
          23.922506332 20.192602158 11.502533913 5.467903614 6.6297187805 19.61662674
          43.701957703 41.898147583 19.851085663 5.457171917 8.6208753586 17.983829498
          29.10723114 53.255886078 58.938373566 58.640460968 53.101337433 29.821493149
          21.200737 8.6364440918 32.452613831 50.941482544 58.046298981 58.55229187
          60.877410889 61.005550385 50.272872925 59.26914978 49.94694519 33.155918121
          24.327739716 19.297977448 20.890726089 18.470758438 21.178049088 29.421205521
          35.188411713 35.062660217 29.193372726 20.869472504 18.039165497 20.71588707
          33.01953125 58.370574951 52.495868683 60.949150085 51.557056427 51.453117371
          50.419242859 52.056152344 49.592102051 33.178638458 20.868247986 18.168479919
          20.265233994 29.185756683 35.141685486 35.326629639 29.035211563 20.241636276
          17.873188019 20.848783493 22.506494522 19.397079468 19.503063202 19.747056961
          9.2029495239 17.244878769 29.170763016 53.632980347 58.903469086 58.743526459
          53.314281464 30.039546967 20.829629898 10.393435478 42.411998749 20.53597641
          5.9280185699 6.2350935936 11.740022659 20.604101181 5.6796107292 11.402410507
          19.242380142 54.473892212 54.648448944 37.480056763 28.626605988 19.736671448
          12.985221863 19.84585762 27.707555771 41.105880737 55.715049744 48.388332367
          37.681236267 34.090763092 19.510257721 13.205843925 19.255514145 28.340787888
          37.01984024 45.472770691 38.799884796 46.500591278 47.745998383 40.511554718
          64.534187317 60.596775055 50.778015137 54.329761505 60.243686676 60.728805542
          43.524684906 44.137145996 45.389759064 64.659408569 62.157455444 55.405273438
          47.055427551 47.899219513 51.839523315 53.699119568 60.511886597 48.173538208
          46.953788757 47.015235901 48.383369446 52.015670776 53.654548645 61.419849396
          48.29271698 46.815380096 55.476051331 64.19745636 58.732250214 21.143636703
          9.0212211609 9.0956525803 12.093787193 26.432975769 8.4060297012 19.734436035
          46.928981781 48.093273163 41.870319366 36.808769226 38.61448288 45.885215759
          44.315315247 46.723026276 21.42035675 18.301078796 10.453507423 13.646784782
          11.434467316 9.5414619446 19.431520462 25.769794464 26.7682724 28.947343826
          22.569314957 29.58417511 18.366954803 10.156815529 13.417469978 5.348212719
          7.5795812607 2.9267475605 3.8050968647 3.6653809547 2.4786043167 7.8287920952
          5.0864481926 13.241026878 9.8443861008 23.086427689 18.4028759 28.480596542
          25.322328568 16.823364258 19.819177628 9.8195495605 12.536390305 5.1398949623
          7.7026720047 2.8539893627 3.8728206158 3.7278094292 2.7584850788 7.9573578835
          5.3508162498 13.488229752 10.539747238 21.619890213 17.081777573 15.143001556
          8.8693933487 4.0665864944 2.3470118046 3.8458108902 7.9777617455 14.876869202
          11.888134956 15.958695412 14.148041725 51.944698334 50.694992065 43.165538788
          31.435321808 23.080509186 17.964506149 15.930340767 15.274787903 14.392879486
          15.465183258 15.567855835 15.744740486 17.751922607 20.214681625 28.434318542
          36.020420074 45.713752747 52.528549194 50.480247498 40.614780426 47.379974365
          20.238601685 25.080284119 15.125090599 6.7590274811 8.428311348 4.1863164902
          4.7434897423 5.129805088 4.4316534996 8.7998323441 6.6413216591 17.374408722
          12.79447937 28.828437805 23.085363388 40.811798096 48.727600098 32.274810791
          11.872193336 5.788834095 4.9755997658 6.8042712212 11.568368912 21.758079529
          36.750171661 34.902919769 36.092147827 54.636951447 48.93038559 39.643268585
          27.694347382 20.972913742 18.814985275 16.598865509 16.360656738 15.216740608
          15.652739525 15.092795372 16.336120605 18.313627243 22.216178894 27.736341476
          35.739048004 45.215660095 52.384895325 53.973201752 40.690261841 42.93919754
          26.395305634 32.257335663 13.074382782 17.301710129 6.0445575714 8.0633363724
          3.6698338985 4.4000954628 4.0309948921 3.6070487499 8.5806035995 5.6536049843
          16.257177353 13.109984398 29.435937881 23.745042801 37.754238129 47.121498108
          27.324987411 11.314775467 6.4263658524 5.2773709297 6.7102169991 9.9570617676
          24.182214737 38.602012634 35.652011871 44.439243317 44.974536896 42.923137665
          50.070320129 46.320545197 6.6390142441 13.48936367 23.187891006 29.926330566
          38.662384033 20.019678116 16.731460571 13.834512711 9.4862670898 4.4043092728
          16.206407547 16.880062103 18.910392761 18.711420059 19.003330231 18.873018265
          15.31228447 15.319612503 16.366926193 19.046209335 11.688045502 16.926687241
          3.7334198952 9.1463108063 13.468544006 5.487010479 21.353136063 41.182395935
          30.153690338 46.630462646 45.584213257 40.090042114 40.365085602 15.871979713
          26.604003906 34.361431122 17.535299301 19.214830399 15.74544239 18.827135086
          16.425474167 21.597126007 16.437625885 14.291804314 28.071212769 22.239805222
          38.566936493 34.474014282 32.188102722 22.998544693 24.269371033 30.339759827
          33.395923615 21.995716095 25.669948578 24.839977264 24.976776123 20.599451065
          24.166971207 22.722906113 27.623561859 33.43560791 30.148035049 32.06811142
          32.627288818 25.669485092 29.990259171 28.182603836 31.554027557 29.873319626
          41.567504883 41.001819611 40.527870178 42.099601746 37.539047241 37.045627594
          37.280914307 35.021888733 35.586326599 36.117557526 35.134319305 36.624141693
          36.084285736 38.908073425 37.336868286 42.606342316 39.437198639 44.330131531
          44.174629211 28.949741364 15.446054459 21.077913284 7.7296009064 8.3808479309
          15.506001472 11.236543655 11.68227005 31.117074966 36.94008255 42.32718277
          44.493045807 43.738082886 44.919513702 42.665390015 41.393947601 35.586326599
          31.143396378 12.861297607 17.105285645 12.474989891 12.926617622 30.338403702
          20.104721069 29.781669617 30.199827194 29.525630951 23.659357071 25.601915359
          26.93097496 29.636468887 32.914909363 23.734193802 17.205276489 24.602935791
          33.083637238 33.334236145 30.973978043 24.408008575 15.44862175 10.189021111
          18.163909912 22.93743515 23.803049088 25.249563217 26.174459457 21.794338226
          24.741287231 20.479635239 22.536153793 22.063941956 21.62921524 26.035676956
          22.316890717 24.763093948 25.233787537 21.320573807 23.916635513 31.827939987
          38.906986237 45.97026825 43.049114227 37.881443024 34.051345825 33.609985352
          31.374546051 32.070381165 30.972318649 33.13501358 32.095054626 35.209503174
          39.255748749 43.060752869 45.516426086 41.116809845 37.661220551 28.538787842
          25.426120758 20.186672211 20.10153389 22.886558533 22.869428635 23.470594406
          23.775730133 22.578638077 24.312007904 25.159955978 25.500644684 25.933807373
          24.923830032 24.972345352 22.833410263 23.663690567 22.923969269 23.806430817
          23.783864975 24.053455353 32.15908432 27.901603699 22.582309723 20.986970901
          21.841844559 25.366109848 31.197347641 27.795969009 22.531923294 32.024841309
          39.533401489 45.650539398 41.766342163 38.249526978 36.299812317 35.726848602
          32.669979095 33.35647583 32.609661102 33.499610901 34.195907593 36.090648651
          37.374897003 42.925491333 47.205940247 41.393070221 37.836555481 28.691047668
          20.130884171 24.909666061 20.099571228 22.526576996 21.960241318 21.920913696
          23.213350296 21.70573616 24.285453796 23.583415985 25.1229496 24.529829025
          24.249568939 24.144906998 22.632125854 23.503679276 22.690851212 22.5253582
          23.313318253 24.304388046 30.730205536 27.274347305 22.102544785 19.906415939
          21.478736877 26.000865936 30.426612854 28.537090302 22.541156769 20.752023697
          20.497091293 20.411857605 19.710992813 18.391145706 21.511230469 18.683677673
          30.595659256 26.866678238 36.013637543 33.797180176 34.457744598 35.394309998
          27.01540947 31.172777176 18.293085098 21.967647552 19.149833679 18.596542358
          20.542612076 20.511936188 20.507902145 20.561290741 17.481328964 18.967063904
          21.525690079 18.055620193 30.606496811 26.513019562 35.157035828 34.11756134
          33.695129395 35.646656036 26.311267853 31.11413765 17.562934875 21.057638168
          19.797121048 17.448583603 16.653516769 23.070262909 31.977952957 34.914924622
          31.825113297 23.840250015 17.277593613 19.429685593 20.602069855 44.447029114
          46.106285095 40.126918793 38.857620239 38.189098358 37.201717377 37.249446869
          35.493362427 35.609981537 35.429489136 36.001598358 36.8087883 37.11555481
          38.542785645 39.127513885 39.193946838 42.833511353 41.320419312 42.535129547
          15.673756599 8.2852201462 28.374362946 20.215246201 13.569267273 11.265429497
          10.530679703 29.135147095 35.650119781 41.601726532 43.53711319 45.74369812
          43.810359955 45.044258118 40.818527222 38.260673523 30.692836761 13.704933167
          11.320397377 17.466930389 14.60700798 7.9409060478 30.852535248 12.379772186
          21.321670532 30.486082077 29.961290359 22.797864914 20.536680222 22.56344223
          27.679409027 28.702100754 29.53861618 21.669303894 17.098999023 23.881919861
          32.284927368 35.084945679 33.991313934 27.218025208 21.306898117 17.93898201
          22.93138504 25.911523819 25.07544899 25.424947739 23.495258331 24.73982811
          21.402551651 23.029756546 20.925937653 22.458772659 22.665094376 23.853321075
          24.682542801 25.459739685 23.727258682 22.551465988 25.195337296 34.012187958
          43.264499664 51.753490448 49.732002258 51.820968628 55.190567017 55.340473175
          55.959136963 55.298461914 55.021595001 53.860160828 52.42539978 51.057163239
          51.42716217 48.019828796 40.841331482 32.771034241 24.634979248 5.7456455231
          3.5972738266 17.832963943 12.382546425 8.1112184525 5.02794981 10.108906746
          33.913974762 20.892498016 41.750202179 37.499664307 43.059452057 43.077545166
          42.435131073 43.393241882 37.36794281 41.076881409 20.347806931 33.652481079
          10.338686943 12.727650642 19.279514313 12.855345726 9.0707855225 31.654924393
          35.742984772 40.707111359 37.754863739 38.624324799 39.313171387 34.463737488
          27.956855774 14.402886391 18.877281189 28.172096252 32.292526245 32.417236328
          30.851886749 28.019496918 19.219842911 22.84642601 10.622350693 16.886220932
          24.150035858 30.98122406 28.357875824 28.698833466 26.409597397 27.149562836
          25.224630356 26.834815979 26.392597198 27.086990356 28.001413345 27.704553604
          28.162622452 19.978000641 27.354852676 28.167654037 38.897418976 19.75869751
          5.710726738 13.584884644 9.0411472321 4.7601857185 14.668795586 20.325183868
          15.98138237 16.487852097 17.382764816 18.874340057 18.807991028 18.814693451
          18.549314499 15.831618309 16.234128952 4.2981982231 8.9293279648 13.551992416
          16.930892944 16.051534653 39.513027191 28.396274567 21.585557938 12.436569214
          5.4448490143 45.860954285 48.684337616 42.887317657 43.952796936 43.465061188
          44.990272522 43.340923309 42.854763031 30.943941116 39.024551392 23.662273407
          15.97914505 19.421230316 16.005331039 16.236446381 18.615768433 17.923978806
          15.65165329 16.13523674 17.390386581 20.963506699 34.966503143 24.913970947
          41.946403503 47.199237823 35.411182404 30.445091248 33.284656525 26.830606461
          22.822792053 23.614904404 25.089229584 20.450580597 23.634500504 22.639083862
          25.377937317 24.224313736 23.034408569 33.279296875 29.874668121 32.385478973
          30.48535347 24.955118179 29.038675308 29.479953766 32.267784119 29.777378082
          33.941436768 24.325277328 50.535125732 42.438564301 49.831481934 55.994823456
          52.963848114 57.218006134 56.156360626 56.13666153 57.065620422 52.263156891
          55.009799957 49.251586914 50.688285828 43.810119629 48.286045074 23.496400833
          32.784145355 17.81221962 13.027270317 3.4904198647 8.4258928299 9.0480957031
          9.2182044983 32.301204681 20.90140152 40.680301666 36.837867737 43.890727997
          43.119472504 43.075645447 43.103084564 37.563236237 40.628154755 20.511978149
          34.017356873 12.899709702 17.96346283 2.8355932236 6.3865761757 8.1276683807
          20.988462448 12.791296959 31.165872574 33.993774414 34.248142242 34.172073364
          34.439704895 35.00951767 32.565620422 27.446208954 14.581187248 16.959608078
          27.973121643 32.11214447 33.40165329 32.677482605 29.747724533 21.962768555
          10.718507767 16.676156998 25.475330353 29.335927963 27.305187225 26.65189743
          28.109325409 25.698284149 27.077087402 26.570091248 27.058286667 27.408786774
          28.573890686 28.030017853 27.928293228 20.479143143 27.886512756 19.215749741
          25.40571022 22.784513474 18.339794159 16.831613541 16.619216919 20.34428215
          18.451768875 20.22986412 18.639019012 20.246501923 20.591054916 18.362670898
          15.574140549 28.175447464 21.470529556 13.368545532 19.27743721 18.934656143
          19.237594604 19.210359573 19.085102081 19.230278015 18.578163147 19.702413559
          17.076276779 12.316313744 15.333744049 19.588323593 19.822330475 18.674890518
          17.589710236 12.798981667 49.444637299 50.557044983 48.887447357 49.330680847
          49.383831024 47.314846039 47.834609985 46.903980255 60.096775055 58.963260651
          57.755062103 52.532073975 53.497093201 51.090717316 64.153923035 62.663707733
          51.404403687 57.338542938 56.037174225 57.521312714 58.012012482 47.684101105
          47.926269531 47.618175507 49.942714691 49.018192291 48.298900604 46.772270203
          45.322319031 50.367675781 49.462486267 47.811008453 48.383769989 49.369586945
          45.167984009 46.25233078 49.24407959 48.831546783 47.761844635 46.742847443
          46.675964355 50.827285767 49.952140808 49.109607697 49.127044678 50.058898926
          46.776714325 47.866451263 49.189289093 58.707679749 42.053573608 39.778255463
          31.109991074 23.508363724 14.650177956 13.759748459 16.906936646 25.85622406
          33.265289307 40.880489349 47.252773285 56.624038696 71.386543274 72.50352478
          69.628074646 61.381568909 57.180274963 66.535560608 58.091369629 56.133468628
          55.012641907 55.67325592 55.604587555 55.28811264 55.550151825 59.901237488
          55.899093628 66.495315552 69.263801575 66.618278503 44.967411041 26.658321381
          18.558105469 32.809379578 51.248252869 59.371864319 47.003055573 37.180007935
          38.097270966 55.235523224 44.956192017 51.717773438 57.014369965 47.124641418
          36.307186127 29.867139816 26.539258957 28.497415543 30.803619385 40.122123718
          53.477336884 44.859996796 58.255905151 42.529895782 37.64043045 29.407690048
          21.135951996 15.582809448 14.978378296 18.760219574 26.945846558 31.845188141
          41.791183472 46.149925232 55.716262817 69.549751282 70.820053101 69.921890259
          67.749282837 59.039775848 57.84122467 55.290061951 55.983600616 55.753799438
          55.583244324 56.754325867 55.089550018 55.473579407 56.243831635 61.146717072
          63.362350464 72.525772095 71.16835022 65.420875549 41.694114685 22.944494247
          19.446399689 33.441669464 51.881187439 59.922351837 49.73651123 36.092308044
          34.628486633 41.545757294 54.895648956 60.00994873 51.195285797 41.113239288
          33.345737457 27.811908722 26.293516159 28.440172195 34.726657867 42.963088989
          51.700023651 33.059955597 17.574359894 15.954009056 16.895820618 19.425130844
          21.052362442 21.26442337 20.117120743 17.650484085 15.249067307 18.776737213
          24.049118042 38.097595215 44.693088531 48.365982056 46.91065979 46.72504425
          47.626110077 47.320457458 46.380313873 48.566917419 49.093296051 48.890781403
          49.338245392 47.160873413 45.286159515 43.077518463 46.641342163 50.535488129
          53.519748688 49.026885986 39.244289398 20.170227051 12.903122902 12.309593201
          15.208595276 30.576436996 39.611415863 31.327299118 24.295051575 23.770906448
          25.683395386 34.941963196 37.42943573 28.671403885 20.642770767 15.861763954
          12.70246315 12.394427299 13.372097015 17.035095215 23.887168884 29.895437241
          49.467910767 50.064640045 47.399528503 48.889514923 49.247615814 47.805236816
          46.616539001 47.244861603 58.911525726 60.267242432 55.987705231 57.520381927
          51.455818176 56.705574036 61.552154541 62.69726181 56.59122467 51.545963287
          58.800117493 55.519786835 57.753742218 47.586647034 47.292873383 47.251708984
          49.348529816 48.924316406 46.670036316 47.534645081 44.74955368 48.47744751
          48.643161774 49.491874695 47.971656799 50.636096954 45.460899353 46.413238525
          46.779331207 47.812931061 49.24237442 50.073616028 46.56703949 50.537727356
          51.140640259 49.771213531 49.101325989 48.586524963 46.970359802 47.601226807
          48.897659302 33.293243408 18.278015137 16.585716248 16.800006866 19.656253815
          20.449308395 19.928800583 18.600395203 17.028530121 14.748291016 17.160886765
          23.337099075 33.692539215 45.74458313 49.514629364 50.474147797 47.973487854
          46.226520538 46.858192444 46.846401215 45.751811981 43.304759979 48.401569366
          48.217166901 46.845241547 48.704944611 45.624187469 43.119510651 49.711799622
          46.74640274 38.077373505 17.266708374 14.768590927 11.011479378 14.678118706
          27.679153442 37.582756042 29.00822258 23.468935013 26.645803452 45.967773438
          29.229984283 32.122653961 34.576011658 24.473611832 15.143481255 13.595434189
          12.154213905 13.795585632 14.453749657 21.292507172 30.955924988 23.767885208
          13.874754906 9.6856479645 10.874503136 8.1525125504 10.551054955 10.498217583
          11.217278481 10.614285469 9.5709667206 10.969527245 9.4460687637 13.871801376
          12.517835617 13.11516571 14.701128006 9.4548931122 10.694892883 8.6307992935
          10.476256371 12.372096062 12.411805153 12.990633965 12.039290428 10.130050659
          11.349136353 14.89230442 16.617343903 9.4249658585 7.5667147636 8.1388654709
          7.6237564087 7.8308367729 9.8163347244 35.597244263 29.448600769 13.979308128
          7.9282155037 5.3622465134 5.594042778 3.612112999 2.0025520325 2.6637153625
          3.8776342869 6.3644514084 12.430891991 26.802862167 39.151103973 28.011737823
          21.069671631 23.0744133 15.862769127 11.680829048 11.863129616 6.1477303505
          3.5799121857 3.4684610367 6.4467797279 13.564465523 25.532733917 25.061668396
          32.820808411 35.686210632 38.758728027 19.926916122 8.1656274796 3.3999655247
          1.6623595953 4.5935816765 5.2647218704 8.0637969971 8.1767511368 14.233668327
          15.213025093 21.952335358 32.989536285 40.040313721 8.5960330963 3.1189587116
          2.101285696 3.7057015896 2.0820469856 1.8347082138 2.370244503 3.0368292332
          5.2129912376 7.9028506279 7.7888960838 19.419343948 44.660289764 46.738018036
          39.136383057 36.300338745 15.91410923 19.78049469 13.233204842 9.7959299088
          12.855039597 4.2783727646 9.6085758209 9.9512691498 3.0977063179 11.578821182
          11.220981598 4.6786379814 16.081336975 14.6876688 7.4207906723 26.133127213
          19.378322601 16.118041992 44.773269653 35.178104401 32.621417999 42.82535553
          43.188011169 41.451416016 41.421901703 25.496101379 17.89814949 46.500816345
          28.421812057 7.9694561958 4.1027460098 4.9030308723 9.1390647888 5.4759073257
          5.9671320915 12.437710762 7.1681780815 10.675374031 25.431249619 16.791780472
          23.967220306 41.416473389 39.521354675 36.983184814 9.8912992477 3.5112421513
          18.045036316 31.844524384 45.058601379 45.253131866 41.851390839 37.482486725
          35.557460785 16.070295334 21.274023056 11.48820591 12.728134155 14.785936356
          4.3298783302 10.939534187 11.305322647 3.0419354439 11.30700779 10.751286507
          3.1201198101 12.871456146 12.408502579 5.4517068863 23.658330917 22.904428482
          16.224063873 44.336380005 35.492855072 32.462215424 42.382740021 41.024196625
          7.0832767487 4.193315506 26.2884655 8.0640964508 4.1273818016 3.643923521
          4.2143111229 10.581415176 24.876077652 16.399934769 23.612030029 41.030361176
          43.839740753 11.48433876 5.5656576157 4.0467200279 15.005702019 22.384311676
          33.425262451 46.838684082 40.841495514 18.781642914 10.626238823 24.63535881
          22.812173843 41.814151764 32.794132233 35.33605957 22.015766144 26.484540939
          27.844425201 16.714426041 21.106994629 22.743881226 14.25750351 20.533504486
          19.702806473 25.236288071 21.740194321 20.205513 6.1777591705 17.019964218
          19.763830185 27.779321671 22.938568115 31.163124084 37.063907623 23.070669174
          30.355243683 27.19764328 34.306083679 36.318954468 22.663488388 27.644491196
          22.429080963 19.693159103 20.519300461 24.067512512 24.538749695 22.545656204
          22.946760178 29.430002213 23.965736389 28.682537079 26.471183777 16.358415604
          22.163835526 9.066534996 30.365737915 35.553043365 36.370353699 28.195768356
          39.326011658 30.049860001 34.411724091 28.536611557 33.659454346 35.260280609
          26.652065277 27.257720947 30.094644547 34.57611084 33.035652161 25.620752335
          23.179586411 30.063796997 23.48242569 28.549591064 33.731472015 36.207736969
          35.867271423 35.784629822 35.536067963 30.020446777 33.779502869 30.878847122
          30.002632141 33.709281921 32.42673111 35.847671509 34.895214081 34.875400543
          41.766139984 32.426380157 42.673923492 35.796081543 34.451789856 32.903873444
          27.175897598 26.308162689 12.636274338 13.686229706 12.814161301 8.4562368393
          10.093460083 8.2761011124 7.5128045082 8.6838006973 8.4211683273 12.384553909
          12.536227226 12.610746384 20.580091476 35.476474762 44.541126251 37.016773224
          40.537517548 41.07371521 33.622657776 30.424449921 27.343397141 19.012300491
          22.390405655 16.574895859 16.256643295 24.484830856 15.967531204 24.808666229
          35.487586975 20.87200737 31.197402954 41.60836792 34.771419525 31.685775757
          42.445610046 41.282981873 33.005817413 41.765529633 43.219944 33.194480896
          35.503898621 41.131587982 32.302368164 25.607608795 34.99729538 31.740512848
          16.924879074 20.388607025 29.621603012 9.3058681488 31.577384949 42.687290192
          36.473972321 24.72602272 10.689815521 8.6631832123 13.204669952 14.562399864
          12.671836853 18.155563354 23.633180618 20.953285217 28.6354599 25.705120087
          34.772880554 40.509101868 33.709560394 29.870588303 24.301240921 33.844364166
          31.334058762 28.123193741 22.717308044 23.483514786 33.795219421 32.816322327
          31.105110168 31.198860168 21.462036133 17.549530029 28.98249054 32.75843811
          25.063793182 26.568162918 18.735105515 17.403108597 21.372772217 17.131299973
          16.879173279 20.181127548 17.657569885 21.340919495 20.281705856 22.712169647
          21.413045883 27.857393265 30.061319351 28.154747009 29.079519272 32.750595093
          24.670137405 24.130887985 21.819372177 17.984413147 22.622436523 25.259695053
          26.477596283 23.069791794 28.957990646 33.377670288 26.062604904 40.588916779
          36.456180573 30.892230988 39.776863098 38.484401703 31.751634598 35.646286011
          33.448638916 23.610107422 32.107837677 29.07040596 19.425725937 32.533081055
          28.196193695 19.698781967 26.569944382 26.138650894 19.364751816 39.393726349
          40.687152863 31.355062485 36.664089203 41.009170532 29.44644928 24.961685181
          20.077413559 22.516651154 21.113578796 21.766044617 24.450450897 24.229816437
          22.351644516 21.070449829 20.361663818 19.655231476 26.53411293 22.686183929
          29.66185379 25.371870041 24.774795532 20.935493469 21.756326675 17.694265366
          15.523518562 20.43415451 14.426956177 14.299387932 24.195184708 16.258871078
          16.464859009 24.116220474 37.47328186 27.956708908 28.825643539 28.440462112
          21.635011673 21.976579666 22.308778763 19.777013779 18.664043427 19.00381279
          19.153970718 19.697198868 22.886064529 51.392559052 44.20614624 40.972286224
          28.809333801 32.116039276 23.259277344 37.710395813 35.935684204 22.581762314
          24.79516983 25.220180511 12.521213531 25.471340179 25.172164917 11.913468361
          28.329650879 26.414958954 15.951032639 36.950046539 32.545864105 25.569200516
          36.349632263 42.00994873 30.214588165 24.892663956 20.793983459 19.4817276
          22.419593811 21.834405899 23.488306046 20.808298111 20.926139832 25.239366531
          23.978788376 17.405942917 24.651199341 25.448444366 17.591421127 20.903039932
          23.232589722 21.199777603 21.329380035 22.629549026 34.518638611 28.191890717
          25.824737549 20.885240555 17.852149963 12.469861984 13.799548149 22.074579239
          28.56602478 28.476463318 22.508045197 25.48456955 20.590988159 24.25194931
          21.894500732 23.804719925 19.126291275 17.466098785 18.508529663 23.052127838
          21.827018738 20.430120468 20.647781372 23.758563995 23.768051147 20.593351364
          19.156112671 21.093797684 17.29255867 17.769578934 16.714910507 17.625764847
          24.808986664 24.429950714 23.833219528 21.98015976 17.748785019 16.80166626
          20.378400803 22.054891586 21.007081985 19.792707443 18.386144638 22.794055939
          18.224918365 42.911857605 32.846969604 42.865840912 36.418151855 36.696659088
          44.656829834 20.295648575 22.821336746 23.094072342 10.237920761 12.790327072
          12.868325233 8.8386955261 8.1481809616 6.9189476967 8.1404438019 11.481561661
          21.534963608 42.775440216 37.898281097 36.13874054 32.708766937 28.008327484
          24.725570679 23.738328934 16.056217194 35.605045319 31.054159164 20.537807465
          41.384284973 31.791687012 34.283290863 42.563270569 33.360851288 41.055583954
          41.809597015 33.556762695 42.923145294 35.470252991 31.652584076 40.998851776
          27.005586624 31.764802933 36.16632843 16.162649155 27.671447754 20.226928711
          10.495347977 19.919290543 14.076576233 31.946128845 21.511014938 16.434698105
          39.696468353 33.38867569 35.543346405 21.364479065 20.252960205 22.498895645
          14.20768261 13.621320724 14.215294838 11.604720116 12.761978149 12.357852936
          14.873826981 14.216436386 13.375448227 23.926923752 21.135871887 19.666049957
          29.210189819 24.51908493 40.87865448 31.214681625 36.048683167 23.646928787
          33.53527832 31.564031601 34.091075897 33.916004181 33.705471039 32.966114044
          33.474803925 20.741327286 31.274469376 23.326059341 29.170856476 31.852542877
          23.033571243 19.332662582 20.310861588 21.041790009 18.492019653 21.451000214
          18.839492798 20.494455338 21.551954269 19.139434814 24.774265289 23.598958969
          22.57535553 31.4765625 29.119859695 29.447156906 26.326524734 23.621095657
          31.962259293 32.364463806 24.393827438 21.865247726 22.280220032 22.570842743
          28.420160294 23.323879242 24.907644272 28.472894669 33.190288544 31.02372551
          21.526435852 28.918556213 32.292007446 26.729797363 50.450908661 47.555042267
          42.227989197 50.722507477 31.847652435 29.542547226 25.849456787 28.956516266
          29.565893173 25.527965546 28.234437943 33.836071014 32.813796997 32.72467041
          38.827243805 40.178718567 37.85004425 43.153827667 48.873180389 51.376613617
          19.125490189 27.703975677 18.824100494 14.528815269 17.161754608 27.329294205
          39.360084534 35.536186218 34.846679688 35.31401062 36.214447021 38.123413086
          33.960201263 45.089271545 53.835269928 36.059444427 42.915973663 30.218538284
          25.323143005 27.773639679 36.705131531 35.521808624 33.696609497 47.431526184
          44.914024353 44.090919495 43.167453766 33.626831055 48.24438858 11.950310707
          13.832965851 42.21213913 37.697956085 31.309656143 30.535259247 32.276454926
          35.986091614 35.521785736 37.351898193 39.949859619 21.356813431 24.644859314
          23.725883484 47.807723999 34.368816376 32.107887268 41.908729553 34.537441254
          34.923686981 36.079101562 28.821977615 25.693346024 28.63889122 32.580528259
          28.082965851 29.7827034 32.587295532 40.50321579 29.835594177 27.0750103
          44.711872101 47.012641907 37.107608795 35.907089233 36.163036346 31.223747253
          28.296340942 30.414712906 37.620944977 41.297988892 36.776229858 47.831970215
          43.154220581 32.023555756 23.666660309 22.240745544 12.636893272 16.678119659
          25.834543228 23.482851028 27.351577759 23.033418655 35.066638947 15.962109566
          21.622570038 23.340082169 23.426809311 19.230499268 20.557073593 7.5022726059
          21.89937973 29.677150726 34.713569641 36.474803925 31.42502594 44.550060272
          36.463218689 34.236156464 30.874187469 33.602046967 32.24792099 28.865703583
          36.036682129 25.361213684 25.188896179 31.03396225 27.068588257 24.433673859
          22.55222702 25.008836746 30.266908646 29.367183685 25.800764084 34.317630768
          31.553121567 35.219108582 28.295297623 34.086639404 33.625259399 35.449752808
          33.588832855 31.024616241 29.501918793 28.739841461 32.836673737 33.380558014
          35.582126617 35.248268127 34.358108521 33.688911438 27.512916565 44.750457764
          52.306137085 49.474910736 49.922176361 48.186214447 41.912956238 32.455421448
          25.190473557 24.586963654 32.246341705 33.580429077 30.36772728 38.45621109
          49.910163879 44.198692322 49.183227539 36.137641907 26.231544495 23.768531799
          8.5664253235 24.31794548 39.161804199 35.906200409 35.594783783 35.387073517
          34.869819641 39.199508667 32.299507141 29.438968658 35.689029694 45.278438568
          52.878448486 41.59337616 30.528352737 35.397079468 28.857589722 25.259214401
          32.069572449 25.316612244 28.583240509 36.19865799 29.659667969 37.891345978
          44.87178421 37.735736847 47.187030792 42.268127441 35.617404938 22.325668335
          41.591686249 37.818386078 36.625244141 36.234985352 36.965297699 38.880058289
          39.04605484 21.263505936 31.137838364 49.18415451 26.579431534 44.640262604
          40.133041382 39.535232544 35.981616974 32.901088715 28.254360199 31.08341217
          30.449224472 26.818422318 31.893568039 33.127601624 28.096975327 37.468898773
          39.195667267 35.106113434 44.82301712 47.205898285 43.233283997 44.891895294
          27.704433441 30.246828079 46.272045135 38.148963928 30.334194183 27.286586761
          28.804002762 36.815544128 46.098976135 46.322826385 39.726016998 36.811199188
          12.459597588 37.392856598 22.596000671 31.862680435 11.955124855 20.661901474
          14.746541023 17.203849792 12.830449104 13.111531258 13.538412094 12.931620598
          16.239904404 14.272759438 12.782998085 21.006296158 19.761293411 12.508511543
          38.87348938 20.870254517 39.471992493 40.857776642 22.797206879 32.096141815
          22.149055481 22.586948395 14.189715385 15.799685478 11.387106895 12.724049568
          12.569638252 10.953659058 15.994826317 13.256556511 11.106555939 20.088359833
          17.32670784 11.183113098 10.29536438 11.380300522 12.083183289 10.887103081
          11.724271774 17.213657379 20.584705353 9.9055347443 11.817939758 10.991546631
          10.387665749 11.079220772 12.292824745 39.646724701 38.650184631 40.563018799
          36.708553314 38.818557739 40.861488342 37.769680023 36.176708221 39.291027069
          36.318981171 36.229801178 37.259681702 40.369026184 47.319946289 46.00561142
          44.759086609 43.054729462 42.846485138 40.445854187 39.962253571 42.100711823
          38.834686279 39.979255676 52.135879517 48.265426636 45.32868576 42.215202332
          34.071437836 37.376880646 44.865772247 42.937824249 40.511138916 46.942863464
          40.200790405 37.903511047 39.368598938 38.627281189 38.047470093 37.756099701
          38.610115051 40.485397339 43.752002716 44.872138977 43.729076385 40.802875519
          43.547939301 39.193161011 40.038269043 43.26133728 45.715370178 42.406448364
          43.3804245 43.39245224 42.749713898 46.59394455 41.62582016 43.634361267
          45.200489044 42.584674835 43.613964081 43.890575409 43.748168945 44.388717651
          45.315361023 44.072116852 35.33694458 30.496608734 32.985160828 37.851211548
          40.822216034 45.289031982 42.76051712 60.374786377 36.131053925 28.981027603
          27.352649689 27.279312134 29.223884583 39.103687286 41.443019867 26.40205574
          26.8061409 59.931838989 42.64496994 50.582126617 39.649681091 38.369068146
          42.219261169 49.716770172 33.157749176 32.536426544 28.867803574 29.156930923
          39.500141144 27.981809616 32.65618515 20.102863312 38.099060059 40.789028168
          39.159900665 37.928443909 39.479831696 36.268108368 35.928752899 39.018695831
          37.222415924 36.628475189 38.247112274 37.694198608 40.307098389 42.133789062
          40.189231873 46.740287781 45.965545654 47.28395462 45.473873138 40.790042877
          42.604984283 42.246829987 38.853614807 40.124488831 40.206111908 40.904289246
          45.621055603 42.889320374 44.441368103 34.828426361 38.175930023 40.871780396
          41.546382904 40.165229797 43.795402527 44.458774567 39.267929077 39.44203949
          39.69285202 37.131126404 37.043762207 37.656341553 39.710113525 41.772914886
          43.449043274 40.958854675 40.332538605 41.021560669 40.101715088 38.678882599
          43.517852783 43.74054718 42.607883453 42.980628967 43.212944031 45.401542664
          43.687374115 43.967468262 45.211837769 44.917461395 43.275844574 46.02066803
          43.317829132 43.622829437 42.829524994 43.076782227 44.823554993 44.400356293
          40.793319702 10.942849159 13.109681129 18.611167908 20.346569061 23.76074028
          30.008687973 28.611537933 14.816714287 13.166157722 13.771651268 13.703001976
          19.901248932 12.736314774 25.209131241 17.130361557 17.351316452 12.251060486
          23.597757339 7.2895421982 4.9573559761 8.9449863434 5.2050285339 2.2719590664
          4.1088209152 2.9028704166 2.7240695953 2.8088819981 1.8176519871 6.9055314064
          10.094070435 6.9289216995 5.1601576805 14.146542549 13.808070183 16.808719635
          10.547590256 23.029819489 11.583065987 23.394655228 6.3940806389 11.696229935
          3.7152531147 4.0718021393 2.6911990643 3.7318272591 3.5462036133 2.126085043
          5.1550941467 3.4273018837 3.8097922802 6.3729357719 6.2616443634 36.916748047
          37.397060394 16.501237869 24.816562653 3.7451984882 1.3214472532 0.90737444162
          4.6517529488 1.1847846508 3.4852452278 5.293987751 9.5498962402 4.120285511
          3.8287007809 3.2470319271 1.500328064 2.1925346851 5.1752638817 39.189098358
          3.8304934502 20.843019485 9.7744579315 10.964401245 3.1425733566 3.3013393879
          14.356080055 29.274730682 20.45945549 16.383241653 2.9711885452 2.2569010258
          2.6997680664 2.8147931099 8.6289148331 7.784506321 29.094100952 6.2106461525
          2.8827688694 1.9526526928 40.29675293 36.278884888 19.749408722 5.9066534042
          5.7207274437 14.158895493 36.071014404 26.12569046 42.834442139 36.748615265
          40.890544891 32.412239075 8.3693027496 40.40379715 36.2253685 18.390932083
          7.9458670616 6.6856460571 6.2570476532 6.80605793 5.8330163956 17.611570358
          36.385028839 24.782245636 37.355155945 29.428800583 7.0435833931 4.2332425117
          3.9495098591 8.5525341034 14.826441765 29.587636948 30.371709824 31.265707016
          20.407184601 29.158121109 37.426181793 36.733299255 37.034061432 35.913852692
          23.530984879 21.341451645 30.619049072 29.582424164 33.021308899 14.057893753
          31.388109207 35.254291534 32.842479706 34.971599579 35.106399536 35.833282471
          35.301490784 23.66034317 35.892326355 38.810081482 38.035198212 38.103969574
          39.434955597 30.061355591 36.654872894 30.542955399 39.966781616 39.267539978
          39.219409943 37.726917267 17.731760025 22.885391235 25.56411171 30.507696152
          26.568656921 30.903478622 23.712440491 19.337745667 18.197399139 19.061384201
          14.757509232 31.934289932 40.474254608 28.453062057 20.465600967 15.988854408
          16.339920044 17.49266243 16.861593246 23.950986862 13.938131332 8.7760648727
          8.9557657242 22.656045914 22.837108612 7.8233008385 10.04695034 32.526847839
          37.716426849 24.86284256 10.909399986 12.055925369 18.960643768 42.23752594
          27.580474854 21.466705322 16.587108612 15.05491066 15.168034554 17.329870224
          12.604913712 9.7970228195 11.892148972 20.877027512 19.630443573 26.315271378
          21.767341614 15.008881569 11.386786461 16.036664963 21.55037117 29.359846115
          40.347167969 36.758155823 17.760564804 35.949573517 29.669862747 36.265197754
          33.105857849 26.73906517 36.425998688 24.656263351 22.728321075 25.009962082
          33.277858734 26.174156189 31.695940018 26.672016144 30.990293503 22.809436798
          18.729934692 34.619857788 42.179763794 36.053287506 41.413673401 34.81653595
          36.392154694 28.95083046 36.096988678 32.903411865 35.247959137 35.247962952
          24.285064697 39.022392273 39.012657166 35.581371307 38.545215607 37.810657501
          34.635540009 37.994911194 39.464614868 40.311412811 35.936107635 42.602703094
          21.702264786 22.026704788 33.037467957 27.710760117 33.148654938 38.72718811
          15.306926727 32.390258789 36.581985474 14.402789116 5.6764245033 3.8231656551
          8.0509366989 19.541786194 37.77545166 35.219543457 36.996387482 30.151512146
          35.208499908 38.409275055 30.928209305 41.426914215 38.616291046 40.298000336
          37.02381134 35.415798187 37.286762238 34.749858856 35.733955383 29.479705811
          33.036663055 30.765556335 33.669498444 36.579090118 32.636375427 35.432102203
          43.593875885 42.770301819 40.053539276 38.200088501 38.757827759 5.3741693497
          6.2235503197 3.8549711704 9.4678754807 24.927436829 4.0830149651 3.7480401993
          3.7718975544 3.5912227631 31.460613251 10.289716721 1.7335560322 2.3204276562
          5.6572370529 25.253723145 8.7945432663 3.3636782169 1.9133753777 16.867881775
          4.7088212967 21.712051392 36.563354492 39.575183868 40.124156952 27.456066132
          17.717700958 8.735496521 7.9226689339 19.079612732 12.826511383 17.792470932
          10.470705986 10.228024483 14.785570145 36.092056274 25.582113266 30.137874603
          22.354972839 27.057819366 29.755609512 36.667945862 37.345928192 36.229030609
          39.248340607 9.5085954666 2.7178173065 13.999023438 34.527980804 3.0011842251
          2.4233243465 10.669549942
        </DataArray>
      </PointData>
      <CellData>
      </CellData>
      <Points>
        <DataArray type="Float32" Name="Points" NumberOfComponents="3" format="ascii" RangeMin="0" RangeMax="35.482389998">
          -25 0 -3 -25 0 3
          -25 25 3 -25 25 -3
          -19.803848267 25 -3 -19.803848267 0 -3
          -19.803848267 0 3 -19.803848267 25 3
          -12.5 25 7.2168784142 -5.1961526871 25 3
          0 25 3 0 25 -3
          -5.1961526871 25 -3 -12.5 25 -7.2168784142
          -12.5 0 7.2168784142 -5.1961526871 0 3
          0 0 3 -5.1961526871 0 -3
          0 0 -3 -12.5 0 -7.2168784142
          -6 21 2.0255284309 -6 21 -2.0255284309
          -6 4 -2.0255284309 -6 4 2.0255284309
          -19 4 -2.0207262039 -19 4 2.0207262039
          -12.495841026 4 5.7759041786 -12.495841026 4 -5.7759041786
          -12.495841026 21 -5.7759041786 -12.495841026 21 5.7759041786
          -19 21 -2.0207262039 -19 21 2.0207262039
          -25 0 0 -25 22.5 3
          -25 20 3 -25 17.5 3
          -25 15 3 -25 12.5 3
          -25 10 3 -25 7.5 3
          -25 5 3 -25 2.5 3
          -25 25 0 -25 2.5 -3
          -25 5 -3 -25 7.5 -3
          -25 10 -3 -25 12.5 -3
          -25 15 -3 -25 17.5 -3
          -25 20 -3 -25 22.5 -3
          -19.803848267 2.5 -3 -19.803848267 5 -3
          -19.803848267 7.5 -3 -19.803848267 10 -3
          -19.803848267 12.5 -3 -19.803848267 15 -3
          -19.803848267 17.5 -3 -19.803848267 20 -3
          -19.803848267 22.5 -3 -22.401924133 0 -3
          -22.401924133 25 -3 -19.803848267 22.5 3
          -19.803848267 20 3 -19.803848267 17.5 3
          -19.803848267 15 3 -19.803848267 12.5 3
          -19.803848267 10 3 -19.803848267 7.5 3
          -19.803848267 5 3 -19.803848267 2.5 3
          -22.401924133 25 3 -22.401924133 0 3
          -14.934616089 25 5.8112521172 -17.36923027 25 4.405626297
          -7.6307682991 25 4.405626297 -10.065383911 25 5.8112521172
          -2.5980763435 25 3 0 25 0
          -2.5980763435 25 -3 -7.6307682991 25 -4.405626297
          -10.065383911 25 -5.8112521172 -14.934616089 25 -5.8112521172
          -17.36923027 25 -4.405626297 -17.36923027 0 4.405626297
          -14.934616089 0 5.8112521172 -12.5 22.5 7.2168784142
          -12.5 20 7.2168784142 -12.5 17.5 7.2168784142
          -12.5 15 7.2168784142 -12.5 12.5 7.2168784142
          -12.5 10 7.2168784142 -12.5 7.5 7.2168784142
          -12.5 5 7.2168784142 -12.5 2.5 7.2168784142
          -5.1961526871 2.5 3 -5.1961526871 5 3
          -5.1961526871 7.5 3 -5.1961526871 10 3
          -5.1961526871 12.5 3 -5.1961526871 15 3
          -5.1961526871 17.5 3 -5.1961526871 20 3
          -5.1961526871 22.5 3 -2.5980763435 0 3
          0 22.5 3 0 20 3
          0 17.5 3 0 15 3
          0 12.5 3 0 10 3
          0 7.5 3 0 5 3
          0 2.5 3 -5.1961526871 22.5 -3
          -5.1961526871 20 -3 -5.1961526871 17.5 -3
          -5.1961526871 15 -3 -5.1961526871 12.5 -3
          -5.1961526871 10 -3 -5.1961526871 7.5 -3
          -5.1961526871 5 -3 -5.1961526871 2.5 -3
          0 2.5 -3 0 5 -3
          0 7.5 -3 0 10 -3
          0 12.5 -3 0 15 -3
          0 17.5 -3 0 20 -3
          0 22.5 -3 -2.5980763435 0 -3
          0 0 0 -12.5 22.5 -7.2168784142
          -12.5 20 -7.2168784142 -12.5 17.5 -7.2168784142
          -12.5 15 -7.2168784142 -12.5 12.5 -7.2168784142
          -12.5 10 -7.2168784142 -12.5 7.5 -7.2168784142
          -12.5 5 -7.2168784142 -12.5 2.5 -7.2168784142
          -17.36923027 0 -4.405626297 -14.934616089 0 -5.8112521172
          -10.065383911 0 -5.8112521172 -7.6307682991 0 -4.405626297
          -10.065383911 0 5.8112521172 -7.6307682991 0 4.405626297
          -6 21 2.7755575616e-16 -6 6.4285712242 -2.0255284309
          -6 8.8571434021 -2.0255284309 -6 11.285714149 -2.0255284309
          -6 13.714285851 -2.0255284309 -6 16.142856598 -2.0255284309
          -6 18.571430206 -2.0255284309 -6 4 0
          -6 18.571430206 2.0255284309 -6 16.142856598 2.0255284309
          -6 13.714285851 2.0255284309 -6 11.285714149 2.0255284309
          -6 8.8571434021 2.0255284309 -6 6.4285712242 2.0255284309
          -19 4 1.1102230246e-15 -14.663894653 4 4.5241780281
          -16.831947327 4 3.272452116 -8.1652803421 4 3.2756538391
          -10.330560684 4 4.5257787704 -10.330560684 4 -4.5257787704
          -8.1652803421 4 -3.2756538391 -16.831947327 4 -3.272452116
          -14.663894653 4 -4.5241780281 -8.1652803421 21 -3.2756538391
          -10.330560684 21 -4.5257787704 -12.495841026 6.4285712242 -5.7759041786
          -12.495841026 8.8571434021 -5.7759041786 -12.495841026 11.285714149 -5.7759041786
          -12.495841026 13.714285851 -5.7759041786 -12.495841026 16.142856598 -5.7759041786
          -12.495841026 18.571430206 -5.7759041786 -12.495841026 6.4285712242 5.7759041786
          -12.495841026 8.8571434021 5.7759041786 -12.495841026 11.285714149 5.7759041786
          -12.495841026 13.714285851 5.7759041786 -12.495841026 16.142856598 5.7759041786
          -12.495841026 18.571430206 5.7759041786 -10.330560684 21 4.5257787704
          -8.1652803421 21 3.2756538391 -19 18.571430206 -2.0207262039
          -19 16.142856598 -2.0207262039 -19 13.714285851 -2.0207262039
          -19 11.285714149 -2.0207262039 -19 8.8571434021 -2.0207262039
          -19 6.4285712242 -2.0207262039 -14.663894653 21 -4.5241780281
          -16.831947327 21 -3.272452116 -19 21 2.7755575616e-16
          -16.831947327 21 3.272452116 -14.663894653 21 4.5241780281
          -19 6.4285712242 2.0207262039 -19 8.8571434021 2.0207262039
          -19 11.285714149 2.0207262039 -19 13.714285851 2.0207262039
          -19 16.142856598 2.0207262039 -19 18.571430206 2.0207262039
          -25 2.671195507 0.29389834404 -25 21.996006012 0.25716522336
          -25 18.987215042 0.021056178957 -25 16.329280853 0.0013616736978
          -25 13.784383774 8.0390775111e-05 -25 11.286133766 6.2257890932e-06
          -25 8.8411407471 3.3915392123e-05 -25 6.541847229 0.00077967677498
          -25 4.737680912 0.059045523405 -22.062850952 2.2125003338 -3
          -22.399007797 5.1553206444 -3 -22.40165329 8.4023828506 -3
          -22.40190506 11.136695862 -3 -22.401922226 13.707439423 -3
          -22.401889801 16.220863342 -3 -22.401268005 18.693372726 -3
          -22.388378143 21.076934814 -3 -21.982154846 23.174962997 -3
          -22.17921257 21.996006012 3 -22.383687973 18.987215042 3
          -22.400743484 16.329280853 3 -22.401855469 13.781038284 3
          -22.401916504 11.267523766 3 -22.401889801 8.7715358734 3
          -22.401266098 6.3043222427 3 -22.388364792 3.9223632812 3
          -21.982097626 1.8248165846 3 -21.986066818 25 0.27113357186
          -14.184963226 25 3.9204919338 -16.428039551 25 1.7335553169
          -19.154098511 25 0.18403485417 -8.653213501 25 2.0325393677
          -11.531657219 25 3.9862790108 -5.0079307556 25 0.16401049495
          -2.1915099621 25 0.43282651901 -7.6318573952 25 -1.251550436
          -9.9029188156 25 -2.9331011772 -11.849569321 25 -4.3981881142
          -14.037913322 25 -4.2842011452 -17.274438858 25 -1.3660881519
          -15.239829063 25 -2.4942557812 -12.555999756 25 1.4257918596
          -14.757425308 25 -0.29984289408 -10.25756073 25 -0.34301555157
          -12.564031601 25 -1.7566277981 -17.291963577 23.077852249 4.450237751
          -17.510778427 20.229217529 4.3239045143 -17.374523163 17.206676483 4.4025712013
          -17.363714218 14.479358673 4.4088115692 -17.365959167 11.878538132 4.4075160027
          -17.372032166 9.3269100189 4.404009819 -17.373010635 6.7838392258 4.403444767
          -17.213205338 4.1885290146 4.4957084656 -17.722747803 1.8772435188 4.2015237808
          -14.926797867 2.2255895138 5.8157653809 -14.772108078 22.053424835 5.9050760269
          -15.00829792 18.98286438 5.7687115669 -14.963355064 16.189506531 5.7946596146
          -14.945345879 13.554735184 5.8050575256 -14.940904617 11.001241684 5.8076219559
          -14.940584183 8.5172519684 5.8078074455 -14.918509483 6.1856794357 5.8205513954
          -14.878883362 4.3389234543 5.8434295654 -2.8207879066 3.0039949417 3
          -2.6163113117 6.0127859116 3 -2.5992555618 8.6707191467 3
          -2.5981454849 11.218962669 3 -2.5980818272 13.732476234 3
          -2.598110199 16.228464127 3 -2.5987348557 18.695678711 3
          -2.6116342545 21.077636719 3 -3.0179021358 23.17518425 3
          -2.8207879066 21.996006012 -3 -2.6163113117 18.987215042 -3
          -2.5992555618 16.329280853 -3 -2.5981454849 13.781038284 -3
          -2.5980818272 11.267523766 -3 -2.598110199 8.7715358734 -3
          -2.5987348557 6.3043222427 -3 -2.6116342545 3.9223632812 -3
          -3.0179021358 1.8248165846 -3 0 21.996006012 0.25716522336
          0 18.987215042 0.021056178957 0 16.329280853 0.0013616736978
          0 13.781038284 8.0206533312e-05 0 11.267523766 6.2404396886e-06
          0 8.7715358734 3.9094229578e-05 0 6.3043222427 0.0007603544509
          0 3.9223632812 0.015655325726 0 1.8248165846 0.48477309942
          -17.650657654 2.7444384098 -4.2431445122 -17.419282913 5.6432561874 -4.3767299652
          -17.374843597 8.2835817337 -4.4023866653 -17.36687088 10.839660645 -4.4069890976
          -17.364994049 13.369771957 -4.4080729485 -17.358734131 15.897959709 -4.4116873741
          -17.332836151 18.436174393 -4.4266400337 -17.243062973 20.965305328 -4.4784698486
          -17.256996155 23.29545784 -4.4704265594 -14.649236679 22.28062439 -5.9760169983
          -14.880524635 19.399259567 -5.8424825668 -14.925172806 16.769334793 -5.8167047501
          -14.933934212 14.218225479 -5.8116455078 -14.936751366 11.687617302 -5.8100194931
          -14.943450928 9.1536245346 -5.8061513901 -14.970024109 6.6049771309 -5.7908096313
          -15.061107635 4.0617933273 -5.7382221222 -15.049451828 1.7156928778 -5.7449522018
          -7.7080383301 23.077852249 -4.450237751 -7.4892225266 20.229217529 -4.3239045143
          -7.6254768372 17.206676483 -4.4025712013 -7.6362857819 14.479358673 -4.4088115692
          -7.6339082718 11.877382278 -4.4074392319 -7.6278882027 9.3215656281 -4.403963089
          -7.6316623688 6.7667007446 -4.4061427116 -7.839615345 4.1436748505 -4.5262041092
          -7.7264022827 1.7081096172 -4.4608397484 -10.381703377 2.4148840904 -5.9938793182
          -10.227891922 22.053424835 -5.9050760269 -9.9917020798 18.98286438 -5.7687115669
          -10.036644936 16.189506531 -5.7946596146 -10.054475784 13.554498672 -5.8049545288
          -10.058554649 11.000253677 -5.8073091507 -10.059246063 8.5160398483 -5.8077077866
          -10.088996887 6.1909527779 -5.8248853683 -10.198812485 4.3898587227 -5.8882875443
          -16.179244995 0 -2.9511623383 -17.459327698 0 -0.79886865616
          -20.055906296 0 0.21006175876 -13.348739624 0 -3.72524786
          -10.622696877 0 -3.9328341484 -8.0544605255 0 -1.7961308956
          -4.6889557838 0 -0.16046899557 -2.0899357796 0 -0.45255836844
          -10.983772278 0 4.1136255264 -8.9417047501 0 2.3938372135
          -7.15645504 0 0.75437015295 -16.271896362 0 2.0386223793
          -13.505805969 0 4.0221400261 -22.828857422 0 0.44246160984
          -14.491081238 0 -0.74174058437 -11.529898643 0 -1.4327479601
          -9.7551231384 0 0.25235959888 -12.460280418 0 1.4984083176
          -7.59298563 1.8716819286 4.3838124275 -7.6327705383 4.8208827972 4.4067821503
          -7.6160402298 8.0074186325 4.3971233368 -7.6290082932 10.73927784 4.404610157
          -7.6349630356 13.331288338 4.4080481529 -7.6416921616 15.883322716 4.4119329453
          -7.6672596931 18.430870056 4.4266943932 -7.7569217682 20.96346283 4.4784603119
          -7.7430315018 23.294883728 4.4704408646 -10.350579262 22.279851913 5.9759092331
          -10.119068146 19.396566391 5.8422470093 -10.073786736 16.761224747 5.8161039352
          -10.063077927 14.197598457 5.8099212646 -10.054244041 11.644012451 5.8048200607
          -10.033058167 9.076089859 5.7925887108 -9.9977264404 6.5180797577 5.772190094
          -10.423074722 4.2658858299 6.0177650452 -10.016871452 2.2703411579 5.7832436562
          -6 18.965774536 -0.20084780455 -6 6.3307719231 -0.17139539123
          -6 9.287276268 0.16232542694 -6 12.222118378 0.014209352434
          -6 14.730379105 0.010949574411 -6 16.919797897 0.27452206612
          -16.838857651 4 -0.00071297877003 -13.182525635 4 2.5344176292
          -15.178613663 4 1.9978222847 -8.2634487152 4 3.081680552e-05
          -9.8586263657 4 1.9635255337 -11.534977913 4 2.9571390152
          -11.530340195 4 -2.9556918144 -9.8594741821 4 -1.9633123875
          -15.175919533 4 -1.9978914261 -13.184703827 4 -2.5328862667
          -14.051818848 4 0.00085484725423 -11.45410347 4 0.00023046403658
          -8.0488166809 6.2830247879 -3.2084131241 -8.242348671 9.0551986694 -3.320148468
          -8.1896066666 11.755417824 -3.2896983624 -8.1699857712 14.332146645 -3.2783703804
          -8.3062086105 16.900417328 -3.3570189476 -7.8525042534 19.165885925 -3.0950717926
          -10.335278511 18.828777313 -4.5285029411 -10.471473694 6.9417977333 -4.607134819
          -10.341620445 9.9688882828 -4.5321640968 -10.324426651 12.58960247 -4.5222373009
          -10.342478752 14.935046196 -4.5326600075 -10.380095482 16.758113861 -4.554377079
          -7.9154400826 18.331129074 3.1314082146 -8.1223478317 15.506457329 3.2508664131
          -8.1668243408 12.923723221 3.2765450478 -8.1886758804 10.415088654 3.2891612053
          -8.213675499 7.9656720161 3.3035943508 -7.8328514099 5.8226494789 3.0837254524
          -10.333719254 6.4437718391 4.5276017189 -10.344370842 9.4064559937 4.5337519646
          -10.327438354 12.025069237 4.5239758492 -10.299600601 14.554018974 4.5079040527
          -10.217953682 17.043807983 4.4607653618 -10.228219986 19.330059052 4.4666924477
          -17.082263947 18.331865311 -3.1279320717 -16.875236511 15.50753212 -3.2474586964
          -16.830308914 12.923826218 -3.2733983994 -16.800563812 10.408841133 -3.2905707359
          -16.720083237 7.9317808151 -3.3370361328 -16.731895447 5.6598730087 -3.3302166462
          -14.41112709 6.6480355263 -4.6701135635 -14.618602753 9.4601812363 -4.550327301
          -14.66414547 12.040156364 -4.5240325928 -14.69493866 14.558700562 -4.506254673
          -14.776762962 17.045431137 -4.4590134621 -14.766336441 19.330593109 -4.4650335312
          -16.839254379 21 -0.00060664251214 -13.180361748 21 -2.5346283913
          -11.532423019 21 -2.9558470249 -15.177874565 21 -1.998210907
          -8.2637004852 21 -5.3418487369e-05 -9.8599729538 21 -1.96367383
          -11.530022621 21 2.9563803673 -13.183375359 21 2.5332598686
          -9.8592557907 21 1.9637653828 -15.178657532 21 1.9967927933
          -14.05143261 21 -0.00075682916213 -11.453686714 21 0.00042575632688
          -17.003913879 6.874373436 3.1731677055 -17.245803833 9.5381469727 3.0335125923
          -16.870090485 11.788825989 3.2504296303 -16.82856369 14.311532021 3.2744061947
          -16.687335968 16.885040283 3.3559439182 -17.143861771 19.160270691 3.0923678875
          -14.659778595 18.821630478 4.5265536308 -14.577012062 6.4214134216 4.574338913
          -14.972826004 9.4756221771 4.3458161354 -14.708985329 12.421094894 4.4981451035
          -14.655683517 14.875473022 4.5289187431 -14.613747597 16.733133316 4.5531301498
          -19 18.669475555 -0.17100813985 -19 15.713114738 0.16195335984
          -19 12.778211594 0.014178987592 -19 10.269812584 0.010919234715
          -19 8.0802879333 0.27386885881 -19 6.0338830948 -0.20042164624
          -21.509727478 6.7795777321 -0.9883762002 -21.452331543 9.7696266174 -0.91439455748
          -21.419675827 12.422074318 -0.93476653099 -21.406572342 14.964139938 -0.82088983059
          -21.396520615 17.456865311 -0.75919020176 -21.370643616 19.879615784 -0.7698340416
          -21.174137115 21.930175781 -0.93504971266 -21.395338058 7.538184166 0.99550843239
          -21.370344162 5.1188907623 0.77679371834 -21.174118042 3.069429636 0.9348564744
          -3.5362551212 4.5639615059 0.9262163043 -3.5652449131 7.3478960991 0.73958706856
          -3.585506916 9.9452705383 0.93528920412 -3.5932791233 12.475744247 0.95669096708
          -3.5974564552 14.980459213 0.95704913139 -3.6046612263 17.461816788 0.9956985116
          -3.629655838 19.881109238 0.77656519413 -3.8258814812 21.930570602 0.93485665321
          -3.8258814812 3.069429636 -0.93485677242 -17.919095993 1.8380601406 1.010363102
          -8.2520999908 2.2051107883 1.6389729977 -12.710878372 2.2746529579 -4.1269102097
          -13.942126274 1.9626985788 1.3791313171 -17.919342041 23.002347946 1.010363102
          -16.774459839 22.705381393 -1.6363928318 -10.247060776 22.809833527 -3.2168459892
          -13.940923691 22.989904404 -1.3794269562 -13.94241333 23.001594543 1.3775871992
          -21.12232399 15.625513077 1.1612707376 -21.123579025 13.098484039 1.086386323
          -21.105863571 10.627651215 1.0917001963 -12.458711624 23.130771637 -3.1455423832
          -15.366664886 1.8964213133 3.3825993538 -3.7594528198 17.988992691 -0.9447016716
          -3.9025917053 14.378919601 -1.0854175091 -3.8845143318 11.910328865 -1.0774655342
          -3.8523592949 9.4804553986 -1.011862874 -17.721616745 2.0156965256 -1.9990205765
          -10.653425217 1.8725030422 -2.5293443203 -7.3827385902 22.962610245 2.1183750629
          -6.130235672 1.9903447628 1.0127642155 -6.2880973816 23.094251633 -1.0127642155
          -16.026554108 22.979106903 2.6070785522 -11.275089264 2.1038486958 1.4846870899
          -11.274520874 22.926555634 1.4840154648 -22.898983002 3.5767407417 -0.9471487999
          -20.892904282 21.783168793 1.23567307 -12.84574604 23.133731842 3.446616888
          -2.0120253563 2.9196782112 0.45628613234 -8.4990768433 2.2034020424 -1.9568276405
          -15.76725769 2.1340632439 -2.9426827431 -12.466505051 1.8872110844 3.1657414436
          -18.904497147 22.99584198 -1.010363102 -15.235788345 22.86577034 -3.3252706528
          -8.4084224701 22.776815414 -1.8392102718 -20.846960068 18.669940948 0.92707282305
          -22.945653915 14.374921799 0.71821755171 -23.122177124 5.6299705505 -0.2733309567
          -9.54301548 23.069250107 2.9994938374 -3.9126472473 6.0124483109 -1.117831707
          -2.2425289154 16.015254974 -0.6827428937 -2.0859057903 13.15952301 -0.5656953454
          -2.0932533741 10.73346138 -0.5047146678 -13.976026535 2.1043376923 -1.5050542355
          -22.963274002 16.978946686 0.86175626516 -20.798196793 3.1370754242 -1.1912440062
          -2.0313577652 8.040760994 -0.86578774452 -25 0 1.5
          -25 0 -1.5 -25 23.75 3
          -25 21.25 3 -25 18.750001907 3
          -25 16.25 3 -25 13.75 3
          -25 11.25 3 -25 8.75 3
          -25 6.25 3 -25 3.75 3
          -25 1.25 3 -25 25 -1.5
          -25 25 1.5 -25 1.25 -3
          -25 3.75 -3 -25 6.25 -3
          -25 8.75 -3 -25 11.25 -3
          -25 13.75 -3 -25 16.25 -3
          -25 18.750001907 -3 -25 21.25 -3
          -25 23.75 -3 -19.803848267 1.25 -3
          -19.803848267 3.75 -3 -19.803848267 6.25 -3
          -19.803848267 8.75 -3 -19.803848267 11.25 -3
          -19.803848267 13.75 -3 -19.803848267 16.25 -3
          -19.803848267 18.750001907 -3 -19.803848267 21.25 -3
          -19.803848267 23.75 -3 -23.700962067 0 -3
          -21.1028862 0 -3 -23.700962067 25 -3
          -21.1028862 25 -3 -19.803848267 23.75 3
          -19.803848267 21.25 3 -19.803848267 18.750001907 3
          -19.803848267 16.25 3 -19.803848267 13.75 3
          -19.803848267 11.25 3 -19.803848267 8.75 3
          -19.803848267 6.25 3 -19.803848267 3.75 3
          -19.803848267 1.25 3 -23.700962067 25 3
          -21.1028862 25 3 -23.700962067 0 3
          -21.1028862 0 3 -13.717308044 25 6.5140652657
          -16.151924133 25 5.1084394455 -18.586540222 25 3.7028131485
          -6.4134602547 25 3.7028131485 -8.8480768204 25 5.1084394455
          -11.282692909 25 6.5140652657 -3.8971142769 25 3
          -1.2990381718 25 3 0 25 -1.5
          0 25 1.5 -1.2990381718 25 -3
          -3.8971142769 25 -3 -6.4134602547 25 -3.7028131485
          -8.8480768204 25 -5.1084394455 -11.282692909 25 -6.5140652657
          -13.717308044 25 -6.5140652657 -16.151924133 25 -5.1084394455
          -18.586540222 25 -3.7028131485 -18.586540222 0 3.7028131485
          -16.151924133 0 5.1084394455 -13.717308044 0 6.5140652657
          -12.5 23.75 7.2168784142 -12.5 21.25 7.2168784142
          -12.5 18.750001907 7.2168784142 -12.5 16.25 7.2168784142
          -12.5 13.75 7.2168784142 -12.5 11.25 7.2168784142
          -12.5 8.75 7.2168784142 -12.5 6.25 7.2168784142
          -12.5 3.75 7.2168784142 -12.5 1.25 7.2168784142
          -5.1961526871 1.25 3 -5.1961526871 3.75 3
          -5.1961526871 6.25 3 -5.1961526871 8.75 3
          -5.1961526871 11.25 3 -5.1961526871 13.75 3
          -5.1961526871 16.25 3 -5.1961526871 18.750001907 3
          -5.1961526871 21.25 3 -5.1961526871 23.75 3
          -3.8971142769 0 3 -1.2990381718 0 3
          0 23.75 3 0 21.25 3
          0 18.750001907 3 0 16.25 3
          0 13.75 3 0 11.25 3
          0 8.75 3 0 6.25 3
          0 3.75 3 0 1.25 3
          -5.1961526871 23.75 -3 -5.1961526871 21.25 -3
          -5.1961526871 18.750001907 -3 -5.1961526871 16.25 -3
          -5.1961526871 13.75 -3 -5.1961526871 11.25 -3
          -5.1961526871 8.75 -3 -5.1961526871 6.25 -3
          -5.1961526871 3.75 -3 -5.1961526871 1.25 -3
          0 1.25 -3 0 3.75 -3
          0 6.25 -3 0 8.75 -3
          0 11.25 -3 0 13.75 -3
          0 16.25 -3 0 18.750001907 -3
          0 21.25 -3 0 23.75 -3
          -3.8971142769 0 -3 -1.2990381718 0 -3
          0 0 1.5 0 0 -1.5
          -12.5 23.75 -7.2168784142 -12.5 21.25 -7.2168784142
          -12.5 18.750001907 -7.2168784142 -12.5 16.25 -7.2168784142
          -12.5 13.75 -7.2168784142 -12.5 11.25 -7.2168784142
          -12.5 8.75 -7.2168784142 -12.5 6.25 -7.2168784142
          -12.5 3.75 -7.2168784142 -12.5 1.25 -7.2168784142
          -18.586540222 0 -3.7028131485 -16.151924133 0 -5.1084394455
          -13.717308044 0 -6.5140652657 -11.282692909 0 -6.5140652657
          -8.8480768204 0 -5.1084394455 -6.4134602547 0 -3.7028131485
          -11.282692909 0 6.5140652657 -8.8480768204 0 5.1084394455
          -6.4134602547 0 3.7028131485 -6 21 -1.0127642155
          -6 21 1.0127642155 -6 5.2142858505 -2.0255284309
          -6 7.6428575516 -2.0255284309 -6 10.071429253 -2.0255284309
          -6 12.5 -2.0255284309 -6 14.928571701 -2.0255284309
          -6 17.357143402 -2.0255284309 -6 19.785713196 -2.0255284309
          -6 4 1.0127642155 -6 4 -1.0127642155
          -6 19.785713196 2.0255284309 -6 17.357143402 2.0255284309
          -6 14.928571701 2.0255284309 -6 12.5 2.0255284309
          -6 10.071429253 2.0255284309 -6 7.6428575516 2.0255284309
          -6 5.2142858505 2.0255284309 -19 4 -1.010363102
          -19 4 1.010363102 -13.579868317 4 5.1500411034
          -15.747919083 4 3.8983151913 -17.915973663 4 2.6465892792
          -7.0826396942 4 2.650591135 -9.24792099 4 3.9007163048
          -11.413201332 4 5.150841713 -11.413201332 4 -5.150841713
          -9.24792099 4 -3.9007163048 -7.0826396942 4 -2.650591135
          -17.915973663 4 -2.6465892792 -15.747919083 4 -3.8983151913
          -13.579868317 4 -5.1500411034 -7.0826396942 21 -2.650591135
          -9.24792099 21 -3.9007163048 -11.413201332 21 -5.150841713
          -12.495841026 5.2142858505 -5.7759041786 -12.495841026 7.6428575516 -5.7759041786
          -12.495841026 10.071429253 -5.7759041786 -12.495841026 12.5 -5.7759041786
          -12.495841026 14.928571701 -5.7759041786 -12.495841026 17.357143402 -5.7759041786
          -12.495841026 19.785713196 -5.7759041786 -12.495841026 5.2142858505 5.7759041786
          -12.495841026 7.6428575516 5.7759041786 -12.495841026 10.071429253 5.7759041786
          -12.495841026 12.5 5.7759041786 -12.495841026 14.928571701 5.7759041786
          -12.495841026 17.357143402 5.7759041786 -12.495841026 19.785713196 5.7759041786
          -11.413201332 21 5.150841713 -9.24792099 21 3.9007163048
          -7.0826396942 21 2.650591135 -19 19.785713196 -2.0207262039
          -19 17.357143402 -2.0207262039 -19 14.928571701 -2.0207262039
          -19 12.5 -2.0207262039 -19 10.071429253 -2.0207262039
          -19 7.6428575516 -2.0207262039 -19 5.2142858505 -2.0207262039
          -13.579868317 21 -5.1500411034 -15.747919083 21 -3.8983151913
          -17.915973663 21 -2.6465892792 -19 21 1.010363102
          -19 21 -1.010363102 -17.915973663 21 2.6465892792
          -15.747919083 21 3.8983151913 -13.579868317 21 5.1500411034
          -19 5.2142858505 2.0207262039 -19 7.6428575516 2.0207262039
          -19 10.071429253 2.0207262039 -19 12.5 2.0207262039
          -19 14.928571701 2.0207262039 -19 17.357143402 2.0207262039
          -19 19.785713196 2.0207262039 -25 1.3355977535 0.14694917202
          -25 1.3355977535 1.646949172 -25 1.25 -1.5
          -25 22.248003006 1.6285825968 -25 23.75 1.5
          -25 20.998003006 1.6285825968 -25 18.243606567 1.5105282068
          -25 19.493606567 1.5105282068 -25 15.664640427 1.500680685
          -25 16.914642334 1.500680685 -25 13.142192841 1.5000401735
          -25 14.392190933 1.5000401735 -25 10.64306736 1.5000032187
          -25 11.89306736 1.5000032187 -25 8.1705703735 1.5000170469
          -25 9.4205703735 1.5000170469 -25 5.7709236145 1.5003898144
          -25 7.0209236145 1.5003898144 -25 2.5855979919 1.646949172
          -25 3.8355975151 1.646949172 -25 23.75 -1.5
          -25 23.498003006 0.12858261168 -25 3.6188402176 -1.4704771042
          -25 2.5855979919 -1.3530507088 -25 7.0209236145 -1.4996100664
          -25 5.7709236145 -1.4996100664 -25 9.4205703735 -1.4999830723
          -25 8.1705703735 -1.4999830723 -25 11.89306736 -1.4999969006
          -25 10.64306736 -1.4999969006 -25 14.392190933 -1.4999598265
          -25 13.142192841 -1.4999598265 -25 16.914642334 -1.4993191957
          -25 15.664640427 -1.4993191957 -25 19.493606567 -1.4894719124
          -25 18.243606567 -1.4894719124 -25 22.248003006 -1.3714175224
          -25 20.998003006 -1.3714175224 -25 20.491609573 0.1391106993
          -25 17.658248901 0.011208927259 -25 15.056833267 0.00072103220737
          -25 12.535259247 4.3308278691e-05 -25 10.063637733 2.0070590836e-05
          -25 7.6914935112 0.00040679611266 -25 4.8688402176 1.5295228958
          -25 5.6397638321 0.029912602156 -25 3.7044382095 0.17647193372
          -25 4.8688402176 -1.4704771042 -20.933349609 1.1062501669 -3
          -20.933349609 2.3562502861 -3 -20.933349609 3.6062502861 -3
          -21.101427078 5.0776605606 -3 -21.101427078 6.3276600838 -3
          -21.102750778 7.9511919022 -3 -21.102750778 9.2011919022 -3
          -21.102876663 10.568347931 -3 -21.102876663 11.818347931 -3
          -21.102884293 13.103721619 -3 -21.102884293 14.353719711 -3
          -21.102869034 15.610432625 -3 -21.102869034 16.860431671 -3
          -21.102558136 18.09668541 -3 -21.102558136 19.346687317 -3
          -21.096113205 20.538467407 -3 -21.096113205 21.788467407 -3
          -20.893001556 22.837482452 -3 -20.893001556 24.087482452 -3
          -23.700962067 1.25 -3 -22.232387543 1.1062501669 -3
          -23.699504852 5.0776605606 -3 -23.699504852 3.8276605606 -3
          -23.699504852 6.3276600838 -3 -23.700828552 9.2011919022 -3
          -23.700828552 7.9511919022 -3 -23.70095253 11.818347931 -3
          -23.70095253 10.568347931 -3 -23.700960159 14.353719711 -3
          -23.700960159 13.103721619 -3 -23.700944901 16.860431671 -3
          -23.700944901 15.610432625 -3 -23.700634003 19.346687317 -3
          -23.700634003 18.09668541 -3 -23.694187164 21.788467407 -3
          -23.694187164 20.538467407 -3 -23.700962067 23.75 -3
          -22.19203949 24.087482452 -3 -22.230928421 3.6839106083 -3
          -22.400331497 6.7788524628 -3 -22.401781082 9.7695407867 -3
          -22.401914597 12.42206955 -3 -22.401906967 14.964152336 -3
          -22.401578903 17.457118988 -3 -22.394821167 19.885154724 -3
          -22.185266495 22.12594986 -3 -23.531425476 2.3562502861 -3
          -23.491077423 22.837482452 -3 -21.1028862 23.75 3
          -20.991531372 22.248003006 3 -20.991531372 20.998003006 3
          -21.093769073 19.493606567 3 -21.093769073 18.243606567 3
          -21.102296829 16.914642334 3 -21.102296829 15.664640427 3
          -21.10284996 14.390518188 3 -21.10284996 13.140518188 3
          -21.102884293 11.883763313 3 -21.102884293 10.63376236 3
          -21.102869034 9.3857679367 3 -21.102869034 8.1357679367 3
          -21.102558136 6.9021611214 3 -21.102558136 5.6521611214 3
          -21.096105576 4.4611816406 3 -21.096105576 3.2111816406 3
          -20.892972946 2.1624083519 3 -20.892972946 0.91240829229 3
          -23.700962067 23.75 3 -22.290569305 23.498003006 3
          -23.589607239 20.998003006 3 -23.589607239 22.248003006 3
          -23.69184494 18.243606567 3 -23.69184494 19.493606567 3
          -23.700372696 15.664640427 3 -23.700372696 16.914642334 3
          -23.700925827 13.140518188 3 -23.700925827 14.390518188 3
          -23.700960159 10.63376236 3 -23.700960159 11.883763313 3
          -23.700944901 8.1357679367 3 -23.700944901 9.3857679367 3
          -23.700634003 5.6521611214 3 -23.700634003 6.9021611214 3
          -23.69418335 3.2111816406 3 -23.69418335 4.4611816406 3
          -23.700962067 1.25 3 -22.19201088 0.91240829229 3
          -22.281452179 20.491609573 3 -22.392217636 17.658248901 3
          -22.401298523 15.055160522 3 -22.401885986 12.524280548 3
          -22.40190506 10.019530296 3 -22.401576996 7.5379295349 3
          -22.394813538 5.1133432388 3 -22.185232162 2.8735899925 3
          -23.491048813 2.1624083519 3 -23.700962067 25 -1.5
          -23.700962067 25 1.5 -23.493034363 25 0.13556678593
          -22.193996429 25 1.6355668306 -20.894956589 25 1.6355668306
          -13.342481613 25 5.5686850548 -14.559789658 25 4.8658723831
          -15.777097702 25 4.1630592346 -16.898635864 25 3.0695910454
          -18.115943909 25 2.3667778969 -6.9246835709 25 2.5162696838
          -8.1419906616 25 3.2190825939 -9.5812129974 25 4.1959524155
          -10.798521042 25 4.898765564 -12.015829086 25 5.6015787125
          -3.8030033112 25 1.5820052624 -5.1020412445 25 1.5820052624
          -1.095754981 25 1.7164133787 -2.3947930336 25 1.7164133787
          -1.2990381718 25 -1.5 -1.095754981 25 0.21641325951
          -5.1020412445 25 -1.4179947376 -3.8030033112 25 -1.4179947376
          -7.631313324 25 -2.8285884857 -6.4140052795 25 -2.1257753372
          -9.9841518402 25 -4.3721766472 -8.7668437958 25 -3.6693634987
          -12.174785614 25 -5.8075332642 -10.95747757 25 -5.1047201157
          -14.486264229 25 -5.0477266312 -13.268956184 25 -5.7505397797
          -15.703572273 25 -4.3449134827 -18.539144516 25 -2.1830441952
          -17.321836472 25 -2.8858571053 -22.193996429 25 -1.3644331694
          -20.894956589 25 -1.3644331694 -19.478973389 25 1.5920174122
          -20.570083618 25 0.22758421302 -12.858310699 25 3.9533851147
          -15.306501389 25 2.8270235062 -17.791069031 25 0.95879507065
          -6.8305721283 25 1.0982749462 -10.092435837 25 3.0094089508
          -3.5997204781 25 0.29841852188 -2.3947930336 25 -1.2835867405
          -6.3198943138 25 -0.54377007484 -8.7673873901 25 -2.0923259258
          -10.876244545 25 -3.6656446457 -12.943740845 25 -4.3411951065
          -16.30452919 25 -3.4499409199 -14.638871193 25 -3.389228344
          -19.478973389 25 -1.4079825878 -18.214267731 25 -0.59102660418
          -16.257133484 25 -1.9301719666 -12.043828964 25 2.7060353756
          -13.370481491 25 2.6731419563 -14.492019653 25 1.5796735287
          -16.851238251 25 0.1837336123 -8.1425361633 25 0.39049440622
          -10.604606628 25 1.729165554 -10.08024025 25 -1.6380583048
          -8.9447097778 25 -0.7972830534 -12.206801414 25 -3.0774080753
          -11.233476639 25 -2.3448643684 -13.300972939 25 -3.0204143524
          -13.901930809 25 -2.1254417896 -16.015932083 25 -0.8329654336
          -14.998626709 25 -1.397049427 -13.656711578 25 0.56297445297
          -15.59273243 25 0.71685618162 -9.4553871155 25 0.84476184845
          -11.406780243 25 0.54138815403 -11.410797119 25 -1.0498217344
          -13.660728455 25 -1.0282354355 -12.560015678 25 -0.16541802883
          -18.547904968 22.788927078 3.7251188755 -18.547904968 24.038925171 3.7251188755
          -18.657314301 20.114610672 3.6619522572 -18.657314301 21.364608765 3.6619522572
          -18.657314301 18.864608765 3.6619522572 -18.589185715 16.103338242 3.7012858391
          -18.589185715 17.353336334 3.7012858391 -18.583780289 13.489679337 3.7044057846
          -18.583780289 14.739679337 3.7044057846 -18.584903717 10.939269066 3.7037577629
          -18.584903717 12.189269066 3.7037577629 -18.587940216 8.4134559631 3.7020049095
          -18.587940216 9.6634559631 3.7020049095 -18.588430405 5.8919196129 3.7017226219
          -18.588430405 7.1419196129 3.7017226219 -18.508525848 3.3442649841 3.7478542328
          -18.508525848 4.5942645073 3.7478542328 -18.763298035 0.93862175941 3.6007618904
          -18.763298035 2.1886217594 3.6007618904 -17.54598999 0.93862175941 4.3035750389
          -14.930706978 1.1127947569 5.8135085106 -16.148015976 1.1127947569 5.1106958389
          -13.713399887 1.1127947569 6.5163221359 -13.717308044 23.75 6.5140652657
          -13.636054039 22.27671051 6.5609779358 -13.636054039 21.026714325 6.5609779358
          -13.754148483 19.49143219 6.4927954674 -13.754148483 18.24143219 6.4927954674
          -13.731678009 16.844753265 6.5057697296 -13.731678009 15.594753265 6.5057697296
          -13.722672462 14.277367592 6.5109677315 -13.722672462 13.027367592 6.5109677315
          -13.720451355 11.750620842 6.5122504234 -13.720451355 10.500620842 6.5122504234
          -13.720292091 9.2586259842 6.512342453 -13.720292091 8.0086250305 6.512342453
          -13.709254265 6.8428397179 6.5187149048 -13.709254265 5.5928397179 6.5187149048
          -13.689441681 3.4194614887 6.5301537514 -13.713399887 2.3627946377 6.5163221359
          -14.853362083 23.526714325 5.8581643105 -17.330596924 24.038925171 4.4279322624
          -16.113288879 24.038925171 5.1307449341 -17.401369095 21.653535843 4.3870716095
          -17.442649841 18.717947006 4.3632378578 -17.369119644 15.843017578 4.4056911469
          -17.364837646 13.178948402 4.4081640244 -17.368995667 10.602723122 4.4057631493
          -17.372520447 8.0553750992 4.4037275314 -17.293106079 5.4861841202 4.4495768547
          -17.467975616 3.0328865051 4.3486166 -16.324771881 2.0514163971 5.0086450577
          -14.890203476 20.518146515 5.8368945122 -14.985827446 17.586185455 5.7816858292
          -14.954351425 14.872120857 5.7998585701 -14.943124771 12.277988434 5.8063392639
          -14.9407444 9.7592458725 5.8077144623 -14.929546356 7.3514652252 5.8141794205
          -14.898695946 5.262301445 5.8319907188 -13.689441681 4.6694617271 6.5301537514
          -14.902840614 3.2822563648 5.8295974731 -16.03203392 22.565639496 5.1776571274
          -16.141441345 21.141321182 5.114490509 -16.191411972 18.094768524 5.085641861
          -16.259538651 19.606040955 5.0463080406 -16.163536072 15.334432602 5.1017355919
          -16.16893959 16.6980896 5.0986151695 -16.155653 12.716636658 5.1062865257
          -16.154529572 14.017046928 5.1069345474 -16.156467438 10.164075851 5.1058158875
          -16.153432846 11.439889908 5.1075687408 -16.156795502 7.6505451202 5.1056265831
          -16.156309128 8.92208004 5.1059083939 -16.065856934 5.1871042252 5.1581296921
          -16.145759583 6.4847593307 5.111998558 -16.070001602 3.207059145 5.1557369232
          -16.046043396 4.2637262344 5.1695690155 -3.8971142769 1.25 3
          -4.0084700584 2.7519974709 3 -4.0084700584 4.0019974709 3
          -3.9062321186 5.5063934326 3 -3.9062321186 6.7563934326 3
          -3.897703886 8.0853595734 3 -3.897703886 9.3353595734 3
          -3.897149086 10.609481812 3 -3.897149086 11.859481812 3
          -3.8971171379 13.11623764 3 -3.8971171379 14.36623764 3
          -3.8971309662 15.614232063 3 -3.8971309662 16.864233017 3
          -3.8974437714 18.097837448 3 -3.8974437714 19.347839355 3
          -3.9038932323 20.538818359 3 -3.9038932323 21.788818359 3
          -4.1070275307 22.837591171 3 -4.1070275307 24.087593079 3
          -2.7094318867 1.5019974709 3 -1.2990381718 1.25 3
          -1.2990381718 23.75 3 -1.3058171272 21.788818359 3
          -1.3058171272 20.538818359 3 -1.2993674278 19.347839355 3
          -1.2993674278 18.097837448 3 -1.2990550995 16.864233017 3
          -1.2990550995 15.614232063 3 -1.2990409136 14.36623764 3
          -1.2990409136 13.11623764 3 -1.2990727425 11.859481812 3
          -1.2990727425 10.609481812 3 -1.2996277809 9.3353595734 3
          -1.2996277809 8.0853595734 3 -1.3081556559 6.7563934326 3
          -1.3081556559 5.5063934326 3 -1.4103939533 4.0019974709 3
          -1.4103939533 2.7519974709 3 -2.8079891205 24.087593079 3
          -2.7185497284 4.5083904266 3 -2.6077837944 7.3417520523 3
          -2.5987005234 9.9448404312 3 -2.5981137753 12.475719452 3
          -2.5980958939 14.980469704 3 -2.5984225273 17.462070465 3
          -2.6051843166 19.886657715 3 -2.8147683144 22.126409531 3
          -1.5089510679 22.837591171 3 -3.8971142769 23.75 -3
          -4.0084700584 22.248003006 -3 -4.0084700584 20.998003006 -3
          -3.9062321186 19.493606567 -3 -3.9062321186 18.243606567 -3
          -3.897703886 16.914642334 -3 -3.897703886 15.664640427 -3
          -3.897149086 14.390518188 -3 -3.897149086 13.140518188 -3
          -3.8971171379 11.883763313 -3 -3.8971171379 10.63376236 -3
          -3.8971309662 9.3857679367 -3 -3.8971309662 8.1357679367 -3
          -3.8974437714 6.9021611214 -3 -3.8974437714 5.6521611214 -3
          -3.9038932323 4.4611816406 -3 -3.9038932323 3.2111816406 -3
          -4.1070275307 2.1624083519 -3 -4.1070275307 0.91240829229 -3
          -1.2990381718 23.75 -3 -2.7094318867 23.498003006 -3
          -1.2990381718 1.25 -3 -1.3058171272 3.2111816406 -3
          -1.3058171272 4.4611816406 -3 -1.2993674278 5.6521611214 -3
          -1.2993674278 6.9021611214 -3 -1.2990550995 8.1357679367 -3
          -1.2990550995 9.3857679367 -3 -1.2990409136 10.63376236 -3
          -1.2990409136 11.883763313 -3 -1.2990727425 13.140518188 -3
          -1.2990727425 14.390518188 -3 -1.2996277809 15.664640427 -3
          -1.2996277809 16.914642334 -3 -1.3081556559 18.243606567 -3
          -1.3081556559 19.493606567 -3 -1.4103939533 20.998003006 -3
          -1.4103939533 22.248003006 -3 -2.8079891205 0.91240829229 -3
          -2.7185497284 20.491609573 -3 -2.6077837944 17.658248901 -3
          -2.5987005234 15.055160522 -3 -2.5981137753 12.524280548 -3
          -2.5980958939 10.019530296 -3 -2.5984225273 7.5379295349 -3
          -2.6051843166 5.1133432388 -3 -2.8147683144 2.8735899925 -3
          -1.5089510679 2.1624083519 -3 0 23.75 -1.5
          0 23.75 1.5 0 23.498003006 0.12858261168
          0 22.248003006 1.6285825968 0 20.998003006 1.6285825968
          0 18.243606567 1.5105282068 0 19.493606567 1.5105282068
          0 15.664640427 1.500680685 0 16.914642334 1.500680685
          0 13.140518188 1.5000401735 0 14.390518188 1.5000401735
          0 10.63376236 1.5000032187 0 11.883763313 1.5000032187
          0 8.1357679367 1.5000195503 0 9.3857679367 1.5000195503
          0 5.6521611214 1.5003801584 0 6.9021611214 1.5003801584
          0 3.2111816406 1.5078276396 0 4.4611816406 1.5078276396
          0 0.91240829229 1.7423866987 0 2.1624083519 1.7423866987
          0 0.91240829229 0.24238654971 0 1.25 -1.5
          0 4.4611816406 -1.4921723604 0 3.2111816406 -1.4921723604
          0 6.9021611214 -1.4996197224 0 5.6521611214 -1.4996197224
          0 9.3857679367 -1.4999804497 0 8.1357679367 -1.4999804497
          0 11.883763313 -1.4999969006 0 10.63376236 -1.4999969006
          0 14.390518188 -1.4999599457 0 13.140518188 -1.4999599457
          0 16.914642334 -1.4993191957 0 15.664640427 -1.4993191957
          0 19.493606567 -1.4894719124 0 18.243606567 -1.4894719124
          0 22.248003006 -1.3714175224 0 20.998003006 -1.3714175224
          0 20.491609573 0.1391106993 0 17.658248901 0.011208927259
          0 15.055160522 0.00072094006464 0 12.524280548 4.3223484681e-05
          0 10.019530296 2.2667336452e-05 0 7.5379295349 0.00039972434752
          0 5.1133432388 0.0082078399137 0 2.8735899925 0.25021421909
          0 2.1624083519 -1.2576134205 -18.72725296 1.3722192049 -3.6215722561
          -18.72725296 2.6222190857 -3.6215722561 -18.72725296 3.8722193241 -3.6215722561
          -18.611564636 5.3216285706 -3.6883649826 -18.611564636 6.5716276169 -3.6883649826
          -18.589345932 7.8917908669 -3.7011933327 -18.589345932 9.14179039 -3.7011933327
          -18.585359573 10.419830322 -3.7034945488 -18.585359573 11.669828415 -3.7034945488
          -18.584421158 12.934885979 -3.7040364742 -18.584421158 14.184885979 -3.7040364742
          -18.581291199 15.448980331 -3.7058436871 -18.581291199 16.698980331 -3.7058436871
          -18.568340302 17.968086243 -3.7133197784 -18.568340302 19.218086243 -3.7133197784
          -18.523454666 20.482652664 -3.7392351627 -18.523454666 21.732652664 -3.7392351627
          -18.530422211 22.897729874 -3.7352132797 -18.530422211 24.147729874 -3.7352132797
          -14.79192543 23.640312195 -5.8936347961 -13.57461834 23.640312195 -6.5964479446
          -17.313114166 24.147729874 -4.4380264282 -16.095806122 24.147729874 -5.1408390999
          -13.57461834 22.390310287 -6.5964479446 -13.57461834 21.140312195 -6.5964479446
          -13.690261841 19.69962883 -6.5296802521 -13.690261841 18.449630737 -6.5296802521
          -13.712587357 17.134666443 -6.5167913437 -13.712587357 15.884667397 -6.5167913437
          -13.716968536 14.60911274 -6.5142621994 -13.716968536 13.35911274 -6.5142621994
          -13.71837616 12.093809128 -6.5134487152 -13.71837616 10.843809128 -6.5134487152
          -13.721725464 9.5768127441 -6.5115146637 -13.721725464 8.3268117905 -6.5115146637
          -13.735012054 7.0524888039 -6.5038437843 -13.735012054 5.8024888039 -6.5038437843
          -13.780554771 4.5308966637 -6.4775505066 -13.780554771 3.2808966637 -6.4775505066
          -13.77472496 2.1078464985 -6.4809150696 -13.77472496 0.85784643888 -6.4809150696
          -17.509944916 1.3722192049 -4.324385643 -14.992034912 0.85784643888 -5.7781023979
          -16.209341049 0.85784643888 -5.0752887726 -17.53496933 4.1938476562 -4.3099374771
          -17.397062302 6.9634189606 -4.3895578384 -17.370857239 9.5616207123 -4.4046878815
          -17.365932465 12.104716301 -4.4075307846 -17.361862183 14.63386631 -4.4098801613
          -17.345783234 17.167068481 -4.4191637039 -17.287948608 19.700738907 -4.4525547028
          -17.25002861 22.130382538 -4.474448204 -15.953113556 22.788043976 -5.2232217789
          -14.76488018 20.839941025 -5.9092497826 -14.902849197 18.08429718 -5.8295927048
          -14.929553032 15.493779182 -5.8141751289 -14.935342789 12.952920914 -5.8108325005
          -14.940101624 10.420619965 -5.8080854416 -14.956737518 7.8793005943 -5.7984805107
          -15.015565872 5.3333854675 -5.7645153999 -15.055279732 2.8887429237 -5.7415866852
          -16.350055695 2.2300655842 -4.9940481186 -16.355882645 3.4031157494 -4.9906835556
          -16.240194321 4.8525247574 -5.0574760437 -16.194652557 6.1241168976 -5.0837697983
          -16.172431946 7.4442791939 -5.0965976715 -16.159147263 8.7186031342 -5.1042690277
          -16.155160904 9.9966411591 -5.1065702438 -16.1518116 11.263637543 -5.1085042953
          -16.150873184 12.528694153 -5.1090459824 -16.149465561 13.793998718 -5.1098594666
          -16.146333694 15.058093071 -5.1116666794 -16.141952515 16.333646774 -5.1141958237
          -16.129003525 17.602754593 -5.1216726303 -16.106679916 18.91771698 -5.1345610619
          -16.061794281 20.182281494 -5.1604757309 -15.946149826 21.622964859 -5.2272434235
          -6.4520955086 24.038925171 -3.7251188755 -6.4520955086 22.788927078 -3.7251188755
          -6.34268713 21.364608765 -3.6619522572 -6.34268713 20.114610672 -3.6619522572
          -6.34268713 18.864608765 -3.6619522572 -6.4108142853 17.353336334 -3.7012858391
          -6.4108142853 16.103338242 -3.7012858391 -6.4162197113 14.739679337 -3.7044057846
          -6.4162197113 13.489679337 -3.7044057846 -6.4150304794 12.188691139 -3.7037196159
          -6.4150304794 10.938691139 -3.7037196159 -6.4120202065 9.6607837677 -3.7019815445
          -6.4120202065 8.410782814 -3.7019815445 -6.4139080048 7.1333503723 -3.7030711174
          -6.4139080048 5.8833503723 -3.7030711174 -6.5178842545 4.5718374252 -3.7631020546
          -6.5178842545 3.3218374252 -3.7631020546 -6.4612770081 2.1040549278 -3.7304198742
          -6.4612770081 0.85405480862 -3.7304198742 -10.223543167 1.2074420452 -5.9025659561
          -11.440851212 1.2074420452 -6.6053791046 -7.6785850525 0.85405480862 -4.4332332611
          -8.8958921432 0.85405480862 -5.1360459328 -11.363946915 22.27671051 -6.5609779358
          -11.282692909 23.75 -6.5140652657 -11.363946915 21.026714325 -6.5609779358
          -11.245851517 18.24143219 -6.4927954674 -11.245851517 19.49143219 -6.4927954674
          -11.268321991 15.594753265 -6.5057697296 -11.268321991 16.844753265 -6.5057697296
          -11.277238846 13.027248383 -6.5109162331 -11.277238846 14.277249336 -6.5109162331
          -11.279277802 10.500126839 -6.512093544 -11.279277802 11.750126839 -6.512093544
          -11.279623032 8.008020401 -6.5122933388 -11.279623032 9.258020401 -6.5122933388
          -11.294498444 5.5954766273 -6.5208816528 -11.294498444 6.8454761505 -6.5208816528
          -11.440851212 2.4574420452 -6.6053791046 -11.349407196 3.4449293613 -6.5525827408
          -7.6694030762 24.038925171 -4.4279322624 -8.8867111206 24.038925171 -5.1307449341
          -10.146637917 23.526714325 -5.8581643105 -7.5986299515 21.653535843 -4.3870716095
          -7.5573496819 18.717947006 -4.3632378578 -7.6308817863 15.843017578 -4.4056911469
          -7.6350975037 13.178369522 -4.4081258774 -7.6308984756 10.599473953 -4.4057016373
          -7.6297755241 8.0441331863 -4.4050531387 -7.7356390953 5.4551877975 -4.466173172
          -7.7830085754 2.9258923531 -4.4935221672 -9.0540523529 2.061496973 -5.2273602486
          -10.109796524 20.518146515 -5.8368945122 -10.014173508 17.586185455 -5.7816858292
          -10.045560837 14.872002602 -5.7998075485 -10.05651474 12.277375221 -5.8061318398
          -10.058899879 9.758146286 -5.8075089455 -10.074121475 7.3534960747 -5.8162970543
          -11.349407196 4.6949295998 -6.5525827408 -10.143904686 5.2904052734 -5.8565859795
          -10.290259361 3.4023714066 -5.9410834312 -8.9679660797 22.565639496 -5.1776571274
          -8.8585577011 21.141321182 -5.114490509 -8.7404623032 19.606040955 -5.0463080406
          -8.8085899353 18.094768524 -5.085641861 -8.8310613632 16.6980896 -5.0986151695
          -8.8364658356 15.334432602 -5.1017355919 -8.8453817368 14.016928673 -5.106883049
          -8.8441934586 12.715940475 -5.1061968803 -8.8462314606 11.438817978 -5.1073741913
          -8.8432216644 10.160909653 -5.1056361198 -8.8435668945 8.9188022614 -5.1058359146
          -8.845454216 7.6413698196 -5.1069254875 -8.860329628 6.4788265228 -5.1155142784
          -8.9643068314 5.1673135757 -5.1755447388 -9.1106595993 3.2792794704 -5.2600412369
          -9.0192136765 4.266767025 -5.2072458267 -16.774238586 0 -3.6783943176
          -17.991546631 0 -2.9755811691 -15.556930542 0 -4.3812074661
          -12.924369812 0 -5.4710631371 -14.141675949 0 -4.7682499886
          -10.344039917 0 -4.8720431328 -11.561347961 0 -5.5748562813
          -9.1267328262 0 -4.1692299843 -6.6253066063 0 -2.398065567
          -7.8426141739 0 -3.1008787155 -3.6435160637 0 -1.5802345276
          -4.942553997 0 -1.5802345276 -1.0449678898 0 -1.7262792587
          -2.3440060616 0 -1.7262792587 -1.2990381718 0 1.5
          -1.0449678898 0 -0.22627918422 -4.942553997 0 1.4197654724
          -3.6435160637 0 1.4197654724 -11.741887093 0 5.6652522087
          -10.524578094 0 4.9624385834 -9.3072710037 0 4.2596254349
          -8.2862358093 0 3.399731636 -7.393611908 0 2.5799984932
          -18.037872314 0 2.5193114281 -16.82056427 0 3.2221243382
          -15.437519073 0 4.2138829231 -14.220211029 0 4.9166960716
          -13.002902985 0 5.6195092201 -23.914428711 0 1.7212307453
          -22.615390778 0 1.7212307453 -21.228914261 0 1.6050308943
          -19.929878235 0 1.6050308943 -23.914428711 0 0.22123080492
          -23.700962067 0 -1.5 -19.929878235 0 -1.3949692249
          -21.228914261 0 -1.3949692249 -16.819284439 0 -1.8750154972
          -18.631587982 0 -1.8994343281 -14.76399231 0 -3.3382053375
          -11.985717773 0 -3.8290410042 -9.3385791779 0 -2.8644824028
          -6.3717079163 0 -0.97829991579 -3.3894457817 0 -0.30651366711
          -2.3440060616 0 1.2737208605 -6.1763038635 0 1.8771851063
          -5.9227056503 0 0.29695060849 -12.244789124 0 4.0678825378
          -9.9627389908 0 3.2537312508 -8.0490789413 0 1.574103713
          -18.163902283 0 1.1243420839 -14.888851166 0 3.0303812027
          -21.442382812 0 0.3262616694 -22.615390778 0 -1.2787692547
          -18.75761795 0 -0.2944034636 -15.335163116 0 -1.8464515209
          -15.975203514 0 -0.77030467987 -13.919908524 0 -2.2334942818
          -11.07629776 0 -2.6827909946 -12.439317703 0 -2.5789978504
          -9.7921791077 0 -1.6144394875 -7.6054577827 0 -0.52088034153
          -12.983043671 0 2.7602741718 -11.722026825 0 2.806016922
          -10.700992584 0 1.9461227655 -9.3484134674 0 1.3230984211
          -8.4557886124 0 0.50336486101 -16.86561203 0 0.61987692118
          -14.366087914 0 1.7685153484 -15.3814888 0 0.64844095707
          -13.010490417 0 -1.0872443914 -8.904791832 0 -0.77188557386
          -10.642510414 0 -0.59019422531 -11.107702255 0 0.87538397312
          -13.475681305 0 0.3783338964 -11.995088577 0 0.032830189914
          -6.3945684433 2.1858408451 3.6919059753 -6.3945684433 0.93584096432 3.6919059753
          -6.4144611359 4.9104413986 3.7033913136 -6.4144611359 3.6604413986 3.7033913136
          -6.4144611359 6.1604409218 3.7033913136 -6.4060964584 9.0037088394 3.69856143
          -6.4060964584 7.7537097931 3.69856143 -6.4125800133 11.619638443 3.7023048401
          -6.4125800133 10.369639397 3.7023048401 -6.4155578613 14.165643692 3.704023838
          -6.4155578613 12.915643692 3.704023838 -6.4189224243 16.691661835 3.7059664726
          -6.4189224243 15.441661835 3.7059664726 -6.4317059517 19.215435028 3.713347435
          -6.4317059517 17.965433121 3.713347435 -6.4765367508 21.731731415 3.7392303944
          -6.4765367508 20.481731415 3.7392303944 -6.4695920944 24.147441864 3.7352204323
          -6.4695920944 22.897441864 3.7352204323 -7.6868991852 24.147441864 4.4380335808
          -8.9042072296 24.147441864 5.1408462524 -11.425289154 23.63992691 6.5963935852
          -10.207982063 23.63992691 5.8935809135 -11.425289154 22.38992691 6.5963935852
          -11.425289154 21.139925003 6.5963935852 -11.309534073 18.448282242 6.5295624733
          -11.309534073 19.698282242 6.5295624733 -11.286893845 15.880612373 6.5164909363
          -11.286893845 17.13061142 6.5164909363 -11.281538963 13.348798752 6.5134000778
          -11.281538963 14.598798752 6.5134000778 -11.277121544 10.822006226 6.510848999
          -11.277121544 12.072008133 6.510848999 -11.26652813 8.2880458832 6.5047335625
          -11.26652813 9.5380449295 6.5047335625 -11.24886322 5.7590398788 6.4945340157
          -11.24886322 7.009039402 6.4945340157 -11.461536407 3.382942915 6.6173214912
          -11.461536407 4.6329431534 6.6173214912 -11.258436203 1.135170579 6.5000610352
          -11.258436203 2.3851706982 6.5000610352 -10.041128159 1.135170579 5.7972478867
          -7.6118764877 0.93584096432 4.3947191238 -8.8291845322 0.93584096432 5.0975322723
          -7.6128778458 3.3462822437 4.3952970505 -7.6244058609 6.4141507149 4.4019527435
          -7.6225237846 9.3733482361 4.4008665085 -7.6319856644 12.035283089 4.4063286781
          -7.6383280754 14.607304573 4.4099907875 -7.6544761658 17.157096863 4.4193134308
          -7.7120904922 19.697166443 4.4525771141 -7.7499761581 22.129173279 4.4744510651
          -9.0468044281 22.787368774 5.2231750488 -10.234824181 20.838207245 5.9090781212
          -10.096427917 18.078895569 5.8291759491 -10.068433762 15.479411125 5.8130121231
          -10.058660507 12.920804977 5.8073711395 -10.043650627 10.360051155 5.7987046242
          -10.015392303 7.7970848083 5.7823896408 -10.210400581 5.3919830322 5.8949766159
          -10.21997261 3.2681136131 5.9005041122 -8.8049287796 2.0710115433 5.0835280418
          -8.8248214722 3.5456118584 5.0950126648 -8.8068828583 7.2627491951 5.0846567154
          -8.8152484894 5.6694812775 5.0894861221 -8.8310337067 9.9076833725 5.0985994339
          -8.8245487213 8.5417547226 5.0948562622 -8.8446025848 12.487650871 5.1064343452
          -8.8416252136 11.191645622 5.1047153473 -8.8523855209 15.040459633 5.1109266281
          -8.8490209579 13.764443398 5.1089849472 -8.8705234528 17.596046448 5.1213989258
          -8.8577404022 16.322273254 5.1140184402 -8.937994957 20.180015564 5.1603546143
          -8.893163681 18.913719177 5.1344704628 -9.0537500381 21.621656418 5.2271852493
          -9.0279226303 4.5433840752 5.2122735977 -6 19.982885361 -1.1131881475
          -6 19.982885361 -0.10042390227 -6 19.982885361 0.91234028339
          -6 5.1653862 -1.0984618664 -6 6.3796715736 -1.0984618664
          -6 7.593957901 -1.0984618664 -6 9.0722093582 -0.93160152435
          -6 10.286495209 -0.93160152435 -6 11.75391674 -1.005659461
          -6 12.968201637 -1.005659461 -6 14.222333908 -1.0072894096
          -6 15.436618805 -1.0072894096 -6 17.745613098 -0.87550318241
          -6 18.768600464 -1.1131881475 -6 5.2142858505 1.0127642155
          -6 5.1653862 -0.085697695613 -6 18.768600464 0.91234028339
          -6 17.745613098 1.1500252485 -6 16.531328201 1.1500252485
          -6 15.436618805 1.0182390213 -6 14.222333908 1.0182390213
          -6 12.968201637 1.0198688507 -6 11.75391674 1.0198688507
          -6 10.286495209 1.0939269066 -6 9.0722093582 1.0939269066
          -6 7.593957901 0.92706650496 -6 6.3796715736 0.92706650496
          -6 7.809024334 -0.0045349863358 -6 10.754698753 0.08826738596
          -6 13.476248741 0.012579463422 -6 15.825089455 0.14273582399
          -6 16.531328201 -0.87550318241 -6 17.942783356 0.036837130785
          -17.919427872 4 -0.00035648938501 -17.919427872 4 -1.0107195377
          -17.919427872 4 1.010006547 -12.839183807 4 4.1551609039
          -13.923210144 4 3.5292978287 -14.921254158 4 3.2610001564
          -16.005279541 4 2.6351370811 -16.835401535 4 1.6358696222
          -7.1317243576 4 1.0127795935 -8.2143650055 4 1.6378421783
          -9.0119533539 4 2.6195895672 -10.094594002 4 3.2446522713
          -10.932769775 4 3.7414586544 -12.01540947 4 4.3665213585
          -7.1317243576 4 1.540840276e-05 -7.1317243576 4 -1.0127487183
          -12.013091087 4 -4.3657979965 -10.930451393 4 -3.7407352924
          -10.095016479 4 -3.2445454597 -9.0123767853 4 -2.6194829941
          -8.2143650055 4 -1.6378114223 -16.835401535 4 -1.636582613
          -16.003932953 4 -2.6351718903 -14.919906616 4 -3.2610347271
          -13.924298286 4 -3.5285320282 -12.840272903 4 -4.1543955803
          -12.358751297 4 2.7457780838 -14.180568695 4 2.2661197186
          -16.008735657 4 0.99855452776 -9.0610370636 4 0.98177826405
          -10.696801186 4 2.4603323936 -12.357522011 4 -2.7442889214
          -10.694906235 4 -2.4595019817 -9.0614614487 4 -0.98164069653
          -16.007387161 4 -0.99930226803 -14.180312157 4 -2.2653887272
          -11.494540215 4 1.4786846638 -12.318314552 4 1.2673237324
          -13.617172241 4 1.2676360607 -14.615215302 4 0.99933850765
          -15.445337296 4 7.0934227551e-05 -9.8587760925 4 0.00013064041559
          -10.656364441 4 0.98187804222 -12.319402695 4 -1.2663279772
          -11.492221832 4 -1.4777308702 -10.656787872 4 -0.98154091835
          -14.613868713 4 -0.99851834774 -13.618260384 4 -1.2660157681
          -12.752961159 4 0.0005426556454 -7.0244083405 5.1415128708 -2.6169707775
          -7.0244083405 6.3557982445 -2.6169707775 -7.0244083405 7.5700836182 -2.6169707775
          -7.1211743355 8.9561710358 -2.6728386879 -7.1211743355 10.17045784 -2.6728386879
          -7.0948033333 11.520565987 -2.6576135159 -7.0948033333 12.734851837 -2.6576135159
          -7.0849933624 14.023217201 -2.6519494057 -7.0849933624 15.237502098 -2.6519494057
          -7.1531047821 16.52163887 -2.6912736893 -7.1531047821 17.735923767 -2.6912736893
          -6.9262523651 18.868658066 -2.5603003502 -6.9262523651 20.082942963 -2.5603003502
          -8.0088920593 20.082942963 -3.1853628159 -9.2502794266 19.914388657 -3.9020781517
          -10.332919121 19.914388657 -4.5271406174 -11.415559769 19.914388657 -5.1522035599
          -11.483657837 6.6851844788 -5.1915192604 -11.413201332 5.2142858505 -5.150841713
          -11.483657837 7.8994703293 -5.1915192604 -11.418731689 10.62730217 -5.1540336609
          -11.418731689 9.4130153656 -5.1540336609 -11.410133362 13.151943207 -5.1490707397
          -11.410133362 11.93765831 -5.1490707397 -11.419160843 15.53895092 -5.1542816162
          -11.419160843 14.324666023 -5.1542816162 -11.415559769 18.700101852 -5.1522035599
          -11.4379673 17.664772034 -5.1651406288 -10.401016235 5.4708986282 -4.5664567947
          -9.1896886826 5.1415128708 -3.8670959473 -8.1070480347 5.1415128708 -3.2420334816
          -8.1455821991 7.6691122055 -3.2642807961 -8.2159776688 10.40530777 -3.3049235344
          -8.1797971725 13.043781281 -3.2840344906 -8.2380971909 15.616283417 -3.317694664
          -8.0793561935 18.033153534 -3.2260453701 -9.0938911438 18.997331619 -3.8117873669
          -10.406547546 8.4553422928 -4.5696492195 -10.333024025 11.279244423 -4.5272011757
          -10.333453178 13.76232338 -4.5274486542 -11.4379673 16.450485229 -5.1651406288
          -10.361286163 15.846580505 -4.5435185432 -10.357686043 17.79344368 -4.5414400101
          -9.2601451874 6.6124110222 -3.9077739716 -9.3569107056 7.998497963 -3.9636418819
          -9.2919836044 9.5120439529 -3.926156044 -9.2656135559 10.8621521 -3.9109313488
          -9.2570171356 12.172509193 -3.9059681892 -9.2472066879 13.460874557 -3.9003038406
          -9.2562322617 14.63359642 -3.9055151939 -9.3243436813 15.917732239 -3.9448392391
          -9.3207445145 17.864597321 -3.9427604675 -9.3431520462 16.829265594 -3.9556980133
          -7.0826396942 19.785713196 2.650591135 -6.9577198029 18.451278687 2.5784683228
          -6.9577198029 17.23699379 2.5784683228 -7.0611739159 15.824656487 2.638197422
          -7.0611739159 14.61037159 2.638197422 -7.0834121704 13.319005013 2.6510367393
          -7.0834121704 12.104719162 2.6510367393 -7.0943379402 10.850401878 2.6573448181
          -7.0943379402 9.6361160278 2.6573448181 -7.1068377495 8.4114074707 2.6645612717
          -7.1068377495 7.1971216202 2.6645612717 -6.916425705 6.1256113052 2.5546269417
          -6.916425705 4.9113249779 2.5546269417 -7.9990663528 4.9113249779 3.1796896458
          -9.0817060471 4.9113249779 3.8047523499 -10.332139969 5.221886158 4.5266904831
          -11.413201332 5.2142858505 5.150841713 -11.414779663 6.4361720085 5.1517529488
          -11.414779663 7.6504573822 5.1517529488 -11.420105934 9.1317996979 5.1548280716
          -11.420105934 10.346084595 5.1548280716 -11.411639214 11.655391693 5.1499404907
          -11.411639214 12.869677544 5.1499404907 -11.397720337 14.134153366 5.1419043541
          -11.397720337 15.348438263 5.1419043541 -11.356897354 16.593334198 5.1183347702
          -11.356897354 17.807617188 5.1183347702 -11.362030029 18.950744629 5.1212978363
          -11.362030029 20.165027618 5.1212978363 -10.279390335 20.165027618 4.4962358475
          -9.1967506409 20.165027618 3.8711733818 -8.0403604507 19.665565491 3.2035307884
          -8.0188941956 16.918792725 3.1911373138 -8.1445865631 14.215089798 3.2637059689
          -8.1777505875 11.669405937 3.2828531265 -8.2011756897 9.1903800964 3.2963778973
          -8.0232629776 6.8941612244 3.1936600208 -9.0832843781 6.133210659 3.8056638241
          -10.339044571 7.925113678 4.5306768417 -10.335903168 10.715762138 4.5288639069
          -10.313519478 13.289543152 4.5159397125 -10.258777618 15.798913002 4.4843344688
          -10.223088264 18.186933517 4.4637289047 -9.0718297958 18.830593109 3.7990503311
          -9.0666971207 17.687469482 3.7960865498 -9.1701517105 16.275131226 3.8558161259
          -9.2109737396 15.030237198 3.8793852329 -9.2332115173 13.738871574 3.8922243118
          -9.247130394 12.474395752 3.9002604485 -9.2580566406 11.220078468 3.9065685272
          -9.2665233612 9.9107723236 3.9114565849 -9.2790231705 8.6860637665 3.9186728001
          -9.2736968994 7.2047224045 3.9155981541 -18.041131973 19.665931702 -2.5743291378
          -18.041131973 18.451644897 -2.5743291378 -18.041131973 17.237361908 -2.5743291378
          -17.937620163 15.825195312 -2.6340925694 -17.937620163 14.610909462 -2.6340925694
          -17.915153503 13.319055557 -2.6470623016 -17.915153503 12.104769707 -2.6470623016
          -17.900281906 10.847277641 -2.6556482315 -17.900281906 9.6329917908 -2.6556482315
          -17.860042572 8.3944616318 -2.6788811684 -17.860042572 7.1801762581 -2.6788811684
          -17.865947723 6.0442218781 -2.6754713058 -17.865947723 4.8299365044 -2.6754713058
          -16.781919479 4.8299365044 -3.3013343811 -15.697894096 4.8299365044 -3.9271974564
          -14.537510872 5.3240180016 -4.5971455574 -13.453484535 5.3240180016 -5.2230091095
          -13.453484535 6.5383033752 -5.2230091095 -13.453484535 7.7525897026 -5.2230091095
          -13.557222366 9.1586608887 -5.1631155014 -13.557222366 10.372947693 -5.1631155014
          -13.579993248 11.662935257 -5.1499681473 -13.579993248 12.877221107 -5.1499681473
          -13.59539032 14.136493683 -5.1410794258 -13.59539032 15.350779533 -5.1410794258
          -13.636301994 16.594144821 -5.1174588203 -13.636301994 17.808429718 -5.1174588203
          -13.631088257 18.95100975 -5.1204686165 -13.631088257 20.165294647 -5.1204686165
          -14.715116501 20.165294647 -4.4946055412 -15.799141884 20.165294647 -3.868742466
          -16.957107544 19.665931702 -3.2001919746 -16.978750229 16.919698715 -3.1876950264
          -16.852771759 14.215679169 -3.2604286671 -16.815437317 11.666334152 -3.2819843292
          -16.760326385 9.1703119278 -3.3138034344 -16.725990295 6.7958264351 -3.3336262703
          -15.571510315 6.1539545059 -4.0001649857 -14.514864922 8.0541086197 -4.6102199554
          -14.641374588 10.7501688 -4.5371794701 -14.679542542 13.29942894 -4.5151433945
          -14.735850334 15.802064896 -4.4826335907 -14.771548271 18.188011169 -4.4620232582
          -15.92429924 18.831230164 -3.7964823246 -15.929512978 17.688646317 -3.7934727669
          -15.826000214 16.276481628 -3.8532361984 -15.785087585 15.033116341 -3.8768568039
          -15.762623787 13.74126339 -3.8898262978 -15.747226715 12.481989861 -3.8987154961
          -15.732355118 11.224497795 -3.9073014259 -15.709582329 9.9345111847 -3.9204490185
          -15.669343948 8.6959819794 -3.9436817169 -15.565606117 7.2899084091 -4.0035743713
          -17.919628143 21 1.0100597143 -17.919628143 21 -0.00030332125607
          -17.919628143 21 -1.0106663704 -13.922127724 21 -3.5294032097
          -12.838101387 21 -4.1552658081 -16.004909515 21 -2.6353313923
          -14.920884132 21 -3.2611942291 -16.835599899 21 -1.6365292072
          -8.2144908905 21 -1.637853384 -7.1318502426 21 -1.0127909184
          -10.095266342 21 -3.2447264194 -9.0126266479 21 -2.6196637154
          -12.014131546 21 -4.3658752441 -10.931491852 21 -3.7408127785
          -7.1318502426 21 -2.6709243684e-05 -7.1318502426 21 1.0127375126
          -10.930291176 21 3.7410795689 -12.01293087 21 4.3661422729
          -9.0122680664 21 2.6197097301 -10.094908714 21 3.2447719574
          -8.2144908905 21 1.6378002167 -16.835599899 21 1.6359226704
          -14.921275139 21 3.2604851723 -16.005302429 21 2.6346225739
          -12.839609146 21 4.1545820236 -13.923634529 21 3.5287189484
          -14.179117203 21 -2.2664194107 -12.356391907 21 -2.7452378273
          -16.008565903 21 -0.99940866232 -9.0618362427 21 -0.9818636179
          -10.69619751 21 -2.4597604275 -10.694638252 21 2.4600727558
          -12.356699944 21 2.744820118 -9.0614786148 21 0.9818559885
          -16.008956909 21 0.998093009 -14.181016922 21 2.2650263309
          -14.614653587 21 -0.99948376417 -13.615896225 21 -1.2676925659
          -12.317024231 21 -1.2671012878 -11.49305439 21 -1.4777106047
          -15.445343018 21 -0.00068173580803 -10.656829834 21 -0.98162400723
          -9.8586940765 21 0.00018616892339 -10.656471252 21 0.98209559917
          -11.491853714 21 1.478402853 -12.318531036 21 1.2668428421
          -14.615044594 21 0.99801790714 -13.61740303 21 1.266251564
          -12.752560616 21 -0.00016553644673 -17.915973663 5.2142858505 2.6465892792
          -18.00195694 6.6514725685 2.5969471931 -18.00195694 7.865758419 2.5969471931
          -18.122900009 9.1976451874 2.5271191597 -18.122900009 10.411931038 2.5271191597
          -17.935045242 11.537269592 2.6355779171 -17.935045242 12.751555443 2.6355779171
          -17.914279938 14.012908936 2.6475663185 -17.914279938 15.227193832 2.6475663185
          -17.843667984 16.513950348 2.6883349419 -17.843667984 17.728233337 2.6883349419
          -18.071929932 18.865850449 2.5565469265 -18.071929932 20.080137253 2.5565469265
          -16.987905502 20.080137253 3.1824100018 -15.745863914 19.910816193 3.8995027542
          -14.661836624 19.910816193 4.5253658295 -13.577810287 19.910816193 5.1512289047
          -13.536426544 6.4249920845 5.1751213074 -13.536426544 5.2107067108 5.1751213074
          -13.536426544 7.6392784119 5.1751213074 -13.734334946 10.38066864 5.0608596802
          -13.734334946 9.1663827896 5.0608596802 -13.60241127 13.067689896 5.1370244026
          -13.60241127 11.853404045 5.1370244026 -13.575761795 15.50916481 5.1524114609
          -13.575761795 14.294878006 5.1524114609 -13.577810287 18.696529388 5.1512289047
          -13.554794312 17.652280807 5.1645174026 -14.620452881 5.2107067108 4.5492582321
          -15.704479218 5.2107067108 3.9233956337 -16.917930603 5.4371871948 3.22281003
          -17.124858856 8.2062606812 3.1033401489 -17.057945251 10.663486481 3.1419708729
          -16.84932518 13.050179482 3.2624177933 -16.757947922 15.598286629 3.315174818
          -16.915599823 18.022655487 3.2241559029 -15.901821136 18.990951538 3.8094611168
          -14.77491951 7.9485177994 4.4600777626 -14.840906143 10.948358536 4.4219808578
          -14.682332993 13.648283005 4.5135316849 -13.554794312 16.437994003 5.1645174026
          -14.63471508 15.804301262 4.5410246849 -14.636763573 17.777381897 4.5398416519
          -15.790462494 6.647892952 3.8737535477 -15.988368988 8.1749973297 3.7594919205
          -16.109313965 9.5068845749 3.6896643639 -15.921459198 10.632223129 3.7981226444
          -15.789536476 12.104960442 3.8742876053 -15.768774033 13.366313934 3.8862755299
          -15.74212265 14.593501091 3.9016625881 -15.671508789 15.880256653 3.9424314499
          -15.673557281 17.853336334 3.9412486553 -15.650540352 16.809085846 3.9545371532
          -19 19.834737778 -1.095867157 -19 18.620450974 -1.095867157
          -19 17.406167984 -1.095867157 -19 15.927984238 -0.92938631773
          -19 14.713699341 -0.92938631773 -19 13.246249199 -1.0032734871
          -19 12.031963348 -1.0032734871 -19 10.777763367 -1.0049034357
          -19 9.5634775162 -1.0049034357 -19 7.2544293404 -0.87342864275
          -19 6.2312269211 -1.1105738878 -19 5.0169415474 -1.1105738878
          -19 19.785713196 1.010363102 -19 19.834737778 -0.085504069924
          -19 5.0169415474 0.91015219688 -19 6.2312269211 0.91015219688
          -19 7.2544293404 1.1472975016 -19 8.4687156677 1.1472975016
          -19 9.5634775162 1.015822649 -19 10.777763367 1.015822649
          -19 12.031963348 1.0174525976 -19 13.246249199 1.0174525976
          -19 14.713699341 1.0913397074 -19 15.927984238 1.0913397074
          -19 17.406167984 0.92485904694 -19 18.620450974 0.92485904694
          -19 5.0169415474 -0.10021082312 -19 17.191293716 -0.00452738069
          -19 14.245661736 0.08806617558 -19 11.524010658 0.01254911162
          -19 9.1750507355 0.14239405096 -19 8.4687156677 -0.87342864275
          -19 7.0570850372 0.036723610014 -23.914428711 1.3355977535 0.36817997694
          -23.589607239 21.996006012 1.6285825968 -23.69184494 18.987215042 1.5105282068
          -23.981637955 17.239473343 1.9308781624 -23.981637955 16.65411377 0.43155896664
          -23.981637955 15.989473343 1.9308781624 -23.972826004 14.687460899 1.8591088057
          -23.972826004 14.079652786 0.35914897919 -23.972826004 13.437460899 1.8591088057
          -23.700960159 11.276828766 1.5000032187 -23.700944901 8.8063383102 1.5000170469
          -23.700634003 6.4230847359 1.5003898144 -23.69418335 3.2967793941 1.646949172
          -23.914428711 1.25 1.7212307453 -23.949491501 3.0383703709 -1.9735743999
          -23.949491501 4.15721035 -0.44405162334 -23.949491501 4.2883701324 -1.9735743999
          -24.061088562 5.3149852753 -1.6366655827 -24.061088562 6.0859084129 -0.13627564907
          -24.061088562 6.5649852753 -1.6366655827 -23.700828552 8.621761322 -1.4999830723
          -23.70095253 11.211415291 -1.4999969006 -23.700960159 13.745912552 -1.4999598265
          -23.700944901 16.275072098 -1.4993191957 -23.700634003 18.840291977 -1.4894719124
          -23.694187164 21.536468506 -1.3714175224 -23.949491501 3.1239681244 -0.32662522793
          -23.949491501 1.7883703709 -0.47357439995 -23.493034363 23.498003006 0.26414936781
          -23.493034363 23.75 1.6355668306 -23.69184494 20.491609573 1.6285825968
          -23.981637955 17.983081818 0.4414062202 -23.972826004 15.35210228 0.35978966951
          -23.972826004 12.830528259 0.3591119051 -23.700960159 10.054331779 1.5000170469
          -23.197669983 8.1896619797 0.49777114391 -23.197669983 7.0400152206 0.49814403057
          -23.197669983 7.519092083 1.9977543354 -24.061088562 5.1838254929 -0.10714271665
          -24.061088562 5.3149852753 1.3633346558 -23.69418335 4.3300223351 1.5295228958
          -23.491077423 22.585485458 -1.3714175224 -23.491077423 24.087482452 -1.5
          -23.700828552 7.4721150398 -1.4996100664 -23.226165771 9.3053836823 -0.45718032122
          -23.226165771 10.527881622 -0.45719414949 -23.226165771 9.8848142624 -1.9571971893
          -23.209838867 11.854104996 -0.46738016605 -23.209838867 13.103228569 -0.46734306216
          -23.209838867 12.461037636 -1.9673833847 -23.972826004 14.687460899 -1.1408911943
          -23.198259354 16.893074036 -0.37891423702 -23.198259354 18.222040176 -0.36906701326
          -23.198259354 17.478431702 -1.8795950413 -23.694187164 20.032073975 -1.4894719124
          -20.301021576 2.8185377121 -2.0956220627 -20.301021576 1.5685377121 -2.0956220627
          -21.430522919 2.6747875214 -2.0956220627 -20.301021576 4.0685377121 -2.0956220627
          -20.656785965 7.1397886276 -1.9941880703 -20.656785965 5.8897886276 -1.9941880703
          -21.954366684 5.9674496651 -1.9941880703 -20.628089905 9.8848142624 -1.9571971893
          -20.628089905 8.6348142624 -1.9571971893 -21.926994324 9.0860061646 -1.9571971893
          -20.611761093 12.461037636 -1.9673833847 -20.611761093 11.211037636 -1.9673833847
          -21.910791397 11.779385567 -1.9673833847 -19.401924133 14.357143402 -2.5103628635
          -19.401924133 13.107143402 -2.5103628635 -20.700960159 13.71086216 -2.5103628635
          -19.401924133 16.821430206 -2.5103628635 -19.401924133 15.571428299 -2.5103628635
          -20.700942993 16.18185997 -2.5103628635 -19.401924133 19.285715103 -2.5103628635
          -19.401924133 18.035713196 -2.5103628635 -20.700634003 18.632400513 -2.5103628635
          -20.488990784 22.215087891 -1.9675248861 -20.488990784 20.965087891 -1.9675248861
          -21.781255722 21.503555298 -1.9675248861 -19.35417366 23.99792099 -2.005181551
          -19.35417366 22.74792099 -2.005181551 -20.44332695 23.085403442 -2.005181551
          -21.059379578 1.1062501669 -1.3949692249 -22.64899826 4.3660311699 -1.9735743999
          -22.760591507 5.3926463127 -1.6366655827 -21.984111786 24.087482452 -1.3644331694
          -21.598604202 4.1461982727 -2.0956220627 -21.955690384 7.5909805298 -1.9941880703
          -21.927118301 10.453162193 -1.9571971893 -21.910799026 13.064757347 -1.9673833847
          -20.605211258 14.982069969 -1.9104449749 -21.904247284 14.335790634 -1.9104449749
          -21.904232025 15.592502594 -1.9104449749 -20.600185394 17.478431702 -1.8795950413
          -21.899204254 16.83886528 -1.8795950413 -21.898895264 18.075119019 -1.8795950413
          -20.587245941 19.939807892 -1.8849170208 -21.885957718 19.286493301 -1.8849170208
          -21.87951088 20.478275299 -1.8849170208 -21.578144073 22.552568436 -1.9675248861
          -23.531425476 1.1062501669 -1.5 -22.480916977 2.8946204185 -1.9735743999
          -23.254863739 7.1397886276 -1.9941880703 -23.203287125 14.982069969 -1.9104449749
          -23.185325623 19.939807892 -1.8849170208 -23.087070465 22.215087891 -1.9675248861
          -20.34837532 22.141582489 2.1178367138 -20.34837532 23.391582489 2.1178367138
          -21.647415161 23.391582489 2.1178367138 -20.34837532 20.891586304 2.1178367138
          -21.536056519 21.889587402 2.1178367138 -20.325405121 18.084970474 1.9635365009
          -20.325405121 19.334968567 1.9635365009 -21.61532402 18.828578949 1.9635365009
          -20.463087082 15.312756538 2.0806355476 -20.463087082 16.562755585 2.0806355476
          -21.761533737 15.977396965 2.0806355476 -20.463712692 12.79924202 2.0431933403
          -20.463712692 14.049242973 2.0431933403 -21.762716293 13.439760208 2.0431933403
          -20.454854965 10.313825607 2.0458500385 -20.454854965 11.563825607 2.0458500385
          -21.753892899 10.947587967 2.0458500385 -20.599594116 7.519092083 1.9977543354
          -20.599594116 8.7690916061 1.9977543354 -21.898614883 8.1548595428 1.9977543354
          -19.401924133 5.7142853737 2.5103628635 -19.401924133 6.9642858505 2.5103628635
          -20.700634003 6.3664474487 2.5103628635 -20.488983154 2.7847146988 1.9674283266
          -20.488983154 4.0347146988 1.9674283266 -21.781242371 3.4958963394 1.9674283266
          -19.929878235 1.25 1.6050308943 -21.019002914 0.91240829229 1.6050308943
          -22.682008743 16.65411377 1.9308781624 -22.673755646 14.077980042 1.8591088057
          -21.638296127 20.385190964 2.1178367138 -21.623855591 17.499610901 1.9635365009
          -21.762088776 14.703274727 2.0806355476 -21.762750626 12.183004379 2.0431933403
          -21.753879547 9.699593544 2.0458500385 -21.898300171 6.9212532043 1.9977543354
          -20.587097168 5.0594453812 1.8883968592 -21.88580513 5.7116069794 1.8883968592
          -21.87935257 4.5206270218 1.8883968592 -21.578109741 2.4471232891 1.9674283266
          -22.082637787 23.498003006 1.6355668306 -22.673482895 17.983081818 1.9308781624
          -22.6731987 15.35210228 1.8591088057 -22.673786163 12.821222305 1.8591088057
          -22.761722565 5.9671468735 1.3633346558 -22.755270004 4.7761669159 1.3633346558
          -23.491048813 2.2480061054 1.646949172 -22.405475616 0.91240829229 1.7212307453
          -21.43948555 23.391582489 0.75340336561 -13.890180588 24.066865921 4.6289343834
          -12.672873497 24.066865921 5.3317475319 -13.515356064 24.066865921 3.6835541725
          -15.738463402 24.038925171 4.1853652 -18.861595154 24.001174927 2.005181551
          -17.644289017 24.001174927 2.7079944611 -17.173690796 24.001174927 1.3719592094
          -7.5067529678 23.981306076 3.2620005608 -6.2894449234 23.981306076 2.5591876507
          -8.0179758072 23.981306076 2.0754573345 -9.8042001724 24.0346241 4.4053735733
          -8.586892128 24.0346241 3.702559948 -10.537337303 24.0346241 3.4928860664
          -10.941119194 23.63992691 4.9810938835 -4.0129165649 24.087593079 1.5820052624
          -1.095754981 23.75 1.7164133787 -5.1020412445 23.75 -1.4179947376
          -7.6699485779 24.038925171 -2.8508939743 -8.805478096 24.038925171 -3.6916694641
          -12.174785614 23.75 -5.8075332642 -14.343574524 23.640312195 -5.1301093102
          -15.085202217 23.932886124 -4.5682616234 -16.302511215 23.932886124 -3.8654484749
          -14.636850357 23.932886124 -3.804735899 -17.265716553 24.147729874 -2.9182572365
          -20.023500443 23.391582489 0.70985388756 -12.18870163 24.066865921 3.7164478302
          -16.697893143 23.989553452 3.5063524246 -15.105760574 23.989553452 3.2637848854
          -16.227298737 23.989553452 2.1703169346 -18.536720276 24.001174927 0.59719896317
          -6.1953349113 23.981306076 1.1411927938 -9.0981140137 24.0346241 2.5160167217
          -2.604706049 24.087593079 1.7164133787 -1.095754981 23.75 -1.2835867405
          -5.6480140686 24.04712677 -0.42437687516 -5.7421250343 24.04712677 -2.0063822269
          -6.9599776268 24.04712677 -1.1321573257 -3.9143595695 23.498003006 -1.4179947376
          -2.5061490536 23.498003006 -1.2835867405 -8.0201396942 23.888406754 -1.5453804731
          -8.0195951462 23.888406754 -3.1224181652 -9.155670166 23.888406754 -2.3861556053
          -10.074989319 23.904916763 -3.0749731064 -10.156222343 23.904916763 -4.51404953
          -11.048315048 23.904916763 -3.8075170517 -13.268956184 23.75 -5.7505397797
          -15.237809181 23.932886124 -2.9097630978 -18.089468002 23.99792099 -1.1882256269
          -19.029298782 23.99792099 -0.41316413879 -16.248413086 24.147729874 -3.4823412895
          -20.445281982 23.99792099 -0.36961472034 -12.700872421 24.066865921 2.4362044334
          -15.18522644 24.000797272 1.5555713177 -14.063688278 24.000797272 2.6490397453
          -13.249206543 24.000797272 1.4016895294 -17.596891403 24.001174927 -0.17786252499
          -7.5072979927 23.981306076 0.43341231346 -11.403089523 23.963277817 2.7351469994
          -9.9638671875 23.963277817 1.758277297 -11.915260315 23.963277817 1.4549036026
          -9.3329916 23.888406754 -1.0911129713 -11.180815697 24.065387726 -3.039321661
          -12.154140472 24.065387726 -3.7718653679 -12.511372566 24.065387726 -2.4510853291
          -13.248311996 24.065387726 -3.714871645 -13.849269867 24.065387726 -2.8198990822
          -16.007144928 23.85269165 -2.0653243065 -17.024450302 23.85269165 -1.5012404919
          -15.765942574 23.85269165 -0.96811783314 -14.349919319 24.000797272 0.53887212276
          -16.338384628 24.001174927 0.35526010394 -8.5308179855 23.888406754 0.096664518118
          -10.766040802 23.963277817 0.57049995661 -10.252311707 23.904916763 -1.7799307108
          -11.405546188 23.904916763 -2.4867370129 -13.252477646 23.994951248 -1.5680276155
          -14.590376854 23.994951248 -1.9368414879 -14.349173546 23.994951248 -0.83963501453
          -13.248461723 23.994951248 0.023182414472 -11.919277191 23.963277817 -0.13630627096
          -18.861595154 22.751174927 2.005181551 -17.605651855 23.040102005 2.7303004265
          -19.401924133 21.75 2.5103628635 -19.401924133 20.5 2.5103628635
          -18.25538826 20.614608765 3.1723151207 -18.473854065 19.580135345 3.046184063
          -18.473854065 18.330137253 3.046184063 -17.327320099 19.694746017 3.7081363201
          -19.401924133 16.821430206 2.5103628635 -19.401924133 15.571428299 2.5103628635
          -18.187261581 16.674766541 3.2116487026 -19.401924133 14.357143402 2.5103628635
          -19.401924133 13.107143402 2.5103628635 -18.181856155 14.096821785 3.214769125
          -19.401924133 11.892857552 2.5103628635 -19.401924133 10.642857552 2.5103628635
          -18.182979584 11.582125664 3.2141208649 -19.401924133 9.428571701 2.5103628635
          -19.401924133 8.178571701 2.5103628635 -18.186016083 9.0920267105 3.2123680115
          -18.186504364 6.6062049866 3.2120857239 -19.401924133 4.5 2.5103628635
          -19.401924133 3.2500002384 2.5103628635 -18.106601715 4.0942649841 3.2582175732
          -18.861469269 2.1690299511 2.005181551 -18.861469269 0.9190300703 2.005181551
          -17.820920944 1.8576519489 2.6059434414 -16.997322083 0.93862175941 3.1200730801
          -16.367948532 0.94821065664 3.894112587 -15.150640488 0.94821065664 4.5969257355
          -15.146731377 2.0610053539 4.5991821289 -14.216302872 1.1127947569 4.9189529419
          -12.672873497 22.816867828 5.3317475319 -12.49792099 20.5 6.4963912964
          -12.49792099 21.75 6.4963912964 -13.633975029 21.526714325 5.8404898643
          -12.49792099 18.035713196 6.4963912964 -12.49792099 19.285715103 6.4963912964
          -13.752069473 18.777145386 5.7723083496 -12.49792099 15.571428299 6.4963912964
          -12.49792099 16.821430206 6.4963912964 -13.729598999 16.166183472 5.7852816582
          -12.49792099 13.107143402 6.4963912964 -12.49792099 14.357143402 6.4963912964
          -13.720593452 13.63451004 5.7904806137 -12.49792099 10.642857552 6.4963912964
          -12.49792099 11.892857552 6.4963912964 -13.718372345 11.143478394 5.7917633057
          -12.49792099 8.178571701 6.4963912964 -12.49792099 9.428571701 6.4963912964
          -13.718212128 8.6871967316 5.7918553352 -12.49792099 5.7142853737 6.4963912964
          -12.49792099 6.9642858505 6.4963912964 -13.707175255 6.3071255684 5.798227787
          -12.49792099 3.2500002384 6.4963912964 -12.49792099 4.5 6.4963912964
          -13.687361717 4.1694617271 5.8096671104 -13.002902985 1.25 5.6195092201
          -17.061954498 22.038925171 3.8613448143 -18.317897797 21.75 3.1362259388
          -17.171361923 20.614608765 3.798178196 -17.25919342 18.183473587 3.7474694252
          -18.181856155 15.311107635 3.214769125 -18.182979584 12.796412468 3.2141208649
          -17.3058815 10.708342552 3.7205142975 -18.52482605 9.7690734863 3.0167565346
          -17.308917999 9.4325294495 3.7187612057 -17.187973022 8.1006422043 3.7885890007
          -18.403881073 7.1871862411 3.0865838528 -17.188461304 6.8291063309 3.7883067131
          -18.403881073 5.9371871948 3.0865838528 -17.108556747 5.5314517021 3.8344385624
          -17.022575378 4.0942649841 3.8840806484 -18.317897797 3.2500002384 3.1362259388
          -17.277347565 2.938621521 3.7369880676 -16.544706345 1.8868324757 3.7920615673
          -13.808926582 22.593578339 4.6758465767 -13.752069473 19.99143219 5.7723083496
          -13.729598999 17.380466461 5.7852816582 -13.577841759 14.937735558 5.8728985786
          -14.809518814 15.532488823 5.1617889404 -14.800515175 14.215103149 5.166987896
          -13.720593452 12.420225143 5.7904806137 -13.718372345 9.9291915894 5.7917633057
          -13.718212128 7.4729113579 5.7918553352 -13.687361717 5.3837471008 5.8096671104
          -13.711319923 3.1127943993 5.7958345413 -14.478535652 23.526714325 4.9127845764
          -15.977928162 22.038925171 4.4872083664 -16.087337494 20.614608765 4.4240412712
          -14.718000412 21.526714325 5.2146272659 -16.076080322 19.071567535 4.4305400848
          -17.030929565 17.045858383 3.8792574406 -17.025524139 15.682200432 3.8823776245
          -15.825344086 16.537273407 4.575302124 -16.036348343 13.450226784 4.4534783363
          -16.037471771 12.149816513 4.4528303146 -14.827165604 12.987915039 5.1516008377
          -16.169393539 10.677080154 4.3766655922 -16.172430038 9.401266098 4.3749132156
          -14.956865311 10.238431931 5.0767188072 -16.17291832 8.1297311783 4.374630928
          -14.95670414 8.9964370728 5.0768117905 -15.975011826 6.6026263237 4.4888920784
          -15.895108223 5.3049712181 4.5350241661 -14.747761726 6.3035464287 5.1974449158
          -16.289936066 3.0424752235 3.9391541481 -14.836096764 19.99143219 5.1464452744
          -14.788551331 16.46131897 5.1738948822 -14.811023712 17.857997894 5.1609210968
          -15.994134903 16.969905853 4.4778504372 -16.00969696 14.677414894 4.4688649178
          -14.824944496 11.711168289 5.1528835297 -14.758797646 7.4693322182 5.1910734177
          -14.727947235 5.380168438 5.2088842392 -14.79534626 3.1127943993 5.1699714661
          -14.771389008 4.1694617271 5.1838040352 -15.938548088 4.0942649841 4.5099434853
          -4.942553997 1.25 1.4197654724 -4.3662033081 4.7819805145 1.9631080627
          -4.3662033081 3.5319807529 1.9631080627 -3.1785213947 3.7839779854 1.9631080627
          -5.5980758667 6.9642858505 2.5127644539 -5.5980758667 5.7142853737 2.5127644539
          -4.3081560135 6.2206788063 2.5127644539 -5.5980758667 9.428571701 2.5127644539
          -5.5980758667 8.178571701 2.5127644539 -4.2996273041 8.7639312744 2.5127644539
          -5.5980758667 11.892857552 2.5127644539 -5.5980758667 10.642857552 2.5127644539
          -4.2990727425 11.252337456 2.5127644539 -5.5980758667 14.357143402 2.5127644539
          -5.5980758667 13.107143402 2.5127644539 -4.2990407944 13.723381042 2.5127644539
          -4.4004068375 17.48090744 1.997849226 -4.4004068375 16.230909348 1.997849226
          -3.1013855934 16.845140457 1.997849226 -5.5980758667 19.285715103 2.5127644539
          -5.5980758667 18.035713196 2.5127644539 -4.2993674278 18.633554459 2.5127644539
          -4.5110168457 22.215286255 1.9674283266 -4.5110168457 20.965286255 1.9674283266
          -3.2187578678 21.504104614 1.9674283266 -5.1020412445 23.75 1.5820052624
          -1.2990381718 0.91240829229 1.7423866987 -1.3058171272 21.536823273 1.6285825968
          -1.2993674278 18.841445923 1.5105282068 -1.2990550995 16.278873444 1.500680685
          -1.2990409136 13.756756783 1.5000401735 -1.2990727425 11.243243217 1.5000032187
          -1.2996277809 8.7211265564 1.5000195503 -1.3081556559 6.158554554 1.5003801584
          -1.0060126781 2.7098391056 1.728143096 -1.0060126781 3.959839344 1.728143096
          -2.4164066315 2.961836338 1.728143096 -3.7548718452 1.5019974709 1.4197654724
          -3.0762834549 5.2883739471 1.9631080627 -4.3806986809 7.423948288 1.8697935343
          -3.0907783508 6.6803412437 1.8697935343 -3.0822503567 8.0093078613 1.8697935343
          -4.39083004 9.9726352692 1.9676445723 -3.0923810005 9.3079938889 1.9676445723
          -3.0918264389 10.582117081 1.9676445723 -4.394715786 12.487873077 1.9783455133
          -3.0957124233 11.847352982 1.9783455133 -3.0956804752 13.104109764 1.9783455133
          -4.3968048096 14.990229607 1.9785244465 -3.097769022 14.356466293 1.9785244465
          -3.0977833271 15.60446167 1.9785244465 -3.1016981602 18.078746796 1.997849226
          -4.4129042625 19.940555573 1.8882825375 -3.1141951084 19.288393021 1.8882825375
          -3.1206450462 20.479373932 1.8882825375 -3.4218916893 22.552875519 1.9674283266
          -2.3050508499 1.4598391056 1.728143096 -1.5089510679 22.585594177 1.6285825968
          -1.814827919 19.940555573 1.8882825375 -1.8023306131 17.48090744 1.997849226
          -1.7987282276 14.990229607 1.9785244465 -1.7966395617 12.487873077 1.9783455133
          -1.792753458 9.9726352692 1.9676445723 -1.7826224566 7.423948288 1.8697935343
          -1.7681275606 4.7819805145 1.9631080627 -5.5980758667 20.5 -2.5127644539
          -5.5980758667 21.75 -2.5127644539 -4.4103941917 21.498003006 -2.5127644539
          -4.4778022766 17.744495392 -1.9723508358 -4.4778022766 18.994497299 -1.9723508358
          -3.1878819466 18.488103867 -1.9723508358 -5.5980758667 15.571428299 -2.5127644539
          -5.5980758667 16.821430206 -2.5127644539 -4.2996273041 16.236068726 -2.5127644539
          -4.5493717194 13.439459801 -2.0427088737 -4.5493717194 14.689459801 -2.0427088737
          -3.2503685951 14.079978943 -2.0427088737 -4.540333271 10.955163956 -2.0387325287
          -4.540333271 12.205163956 -2.0387325287 -3.2412979603 11.588926315 -2.0387325287
          -4.5242557526 8.4902276993 -2.0059313774 -4.5242557526 9.7402276993 -2.0059313774
          -3.2252345085 9.125995636 -2.0059313774 -4.5543999672 5.5062241554 -2.0589158535
          -4.5543999672 6.7562241554 -2.0589158535 -3.2556910515 6.1583852768 -2.0589158535
          -4.5110168457 2.7847146988 -1.9674284458 -4.5110168457 4.0347146988 -1.9674284458
          -3.2187578678 3.4958963394 -1.9674284458 -4.942553997 1.25 -1.5802345276
          -3.8534288406 0.91240829229 -1.5802345276 -1.0449678898 1.25 -1.7262792587
          -1.3058171272 3.9223632812 -1.4921723604 -1.2993674278 6.3043222427 -1.4996197224
          -1.0156788826 9.0203809738 -1.9328938723 -1.0156788826 7.7703809738 -1.9328938723
          -2.3147339821 8.4061489105 -1.9328938723 -1.046626687 11.61673069 -1.7523573637
          -1.046626687 10.36673069 -1.7523573637 -2.3456673622 11.000492096 -1.7523573637
          -1.0429528952 14.079761505 -1.7828476429 -1.0429528952 12.829761505 -1.7828476429
          -2.3420257568 13.470279694 -1.7828476429 -1.1212644577 16.757627487 -1.8413712978
          -1.1212644577 15.507627487 -1.8413712978 -2.4208922386 16.172267914 -1.8413712978
          -1.3081556559 18.987215042 -1.4894719124 -1.4103939533 21.996006012 -1.3714175224
          -4.4129042625 19.940555573 -1.1117174625 -3.2252218723 20.938556671 -1.1117174625
          -3.1229839325 19.43416214 -1.1117174625 -3.1793541908 17.159135818 -1.9723508358
          -3.2509236336 15.354100227 -2.0427088737 -3.2413301468 12.845683098 -2.0387325287
          -3.2252204418 10.373991013 -2.0059313774 -3.2553787231 7.3919920921 -2.0589158535
          -3.2621405125 4.9674057961 -2.0589158535 -3.4218916893 2.4471232891 -1.9674284458
          -2.5539188385 0.91240829229 -1.7262792587 -2.3118298054 3.4210207462 -1.2718570232
          -1.0060126781 2.7098391056 -1.2718570232 -2.5149636269 2.3722474575 -1.2718570232
          -1.3058171272 5.1133432388 -1.4996197224 -2.3150463104 7.1725420952 -1.9328938723
          -2.3456819057 9.7524986267 -1.7523573637 -2.3419938087 12.213523865 -1.7828476429
          -2.4203372002 14.898145676 -1.8413712978 -2.4294199944 17.501235962 -1.8413712978
          -1.4103939533 20.491609573 -1.4894719124 -1.0060126781 3.4210207462 0.23597075045
          -1.0156788826 8.4061489105 -0.43287432194 -1.046626687 11.000492096 -0.25235420465
          -1.0429528952 13.470279694 -0.28280758858 -1.1212644577 16.172267914 -0.34069061279
          -1.095754981 23.498003006 0.34499585629 -1.3058171272 20.032426834 1.5105282068
          -1.8023306131 18.224514008 0.50837731361 -1.8023306131 16.895549774 0.49853011966
          -1.7987282276 15.65486908 0.47920539975 -1.7987282276 14.380748749 0.47856467962
          -1.0429528952 12.829761505 1.2171523571 -1.0429528952 12.213523865 -0.28284457326
          -1.046626687 10.36673069 1.2476427555 -1.046626687 9.7524986267 -0.25233778358
          -1.7826224566 8.059715271 0.3698130846 -1.7826224566 6.8261098862 0.3701736927
          -1.7681275606 5.4341416359 0.46348834038 -1.7681275606 4.243162632 0.47093582153
          -1.0060126781 2.3722474575 0.47052964568 -1.0449678898 0.91240829229 0.016107361764
          -1.0156788826 7.1725420952 -0.43251371384 -1.1212644577 14.898145676 -0.34133136272
          -1.1212644577 17.501235962 -0.33084335923 -18.762731552 2.2578482628 -2.4995102882
          -17.686138153 2.3800673485 -3.1210827827 -18.762731552 1.0078482628 -2.4995102882
          -19.401924133 4.5 -2.5103628635 -18.325328827 3.3722190857 -3.1319355965
          -19.401924133 3.2500002384 -2.5103628635 -19.401924133 6.9642858505 -2.5103628635
          -18.20964241 6.0359144211 -3.1987280846 -19.401924133 5.7142853737 -2.5103628635
          -19.401924133 9.428571701 -2.5103628635 -18.187423706 8.5703620911 -3.2115564346
          -19.401924133 8.178571701 -2.5103628635 -19.401924133 11.892857552 -2.5103628635
          -18.183437347 11.062687874 -3.2138574123 -19.401924133 10.642857552 -2.5103628635
          -18.182497025 13.542028427 -3.2143995762 -18.179367065 16.02040863 -3.216206789
          -18.166416168 18.503801346 -3.2236828804 -19.401924133 21.75 -2.5103628635
          -18.121530533 20.982650757 -3.2495977879 -19.401924133 20.5 -2.5103628635
          -18.080747604 23.145652771 -2.7403948307 -16.246391296 23.08061409 -3.8978483677
          -12.49792099 20.5 -6.4963912964 -13.572538376 21.640312195 -5.87596035
          -12.49792099 21.75 -6.4963912964 -12.49792099 18.035713196 -6.4963912964
          -13.688182831 18.985343933 -5.8091931343 -12.49792099 19.285715103 -6.4963912964
          -12.49792099 15.571428299 -6.4963912964 -13.710507393 16.456094742 -5.7963042259
          -12.49792099 16.821430206 -6.4963912964 -12.49792099 13.107143402 -6.4963912964
          -13.714887619 13.966255188 -5.7937746048 -12.49792099 14.357143402 -6.4963912964
          -12.49792099 10.642857552 -6.4963912964 -13.716296196 11.486664772 -5.7929615974
          -12.49792099 11.892857552 -6.4963912964 -12.49792099 8.178571701 -6.4963912964
          -13.7196455 9.0053834915 -5.7910280228 -12.49792099 9.428571701 -6.4963912964
          -12.49792099 5.7142853737 -6.4963912964 -13.732933044 6.5167751312 -5.7833566666
          -12.49792099 6.9642858505 -6.4963912964 -12.49792099 3.2500002384 -6.4963912964
          -13.778475761 4.0308966637 -5.757062912 -12.49792099 4.5 -6.4963912964
          -12.605439186 1.137326479 -5.6718940735 -13.880166054 1.9951730967 -4.9359312057
          -12.605439186 2.387326479 -5.6718940735 -17.545425415 1.0078482628 -3.2023234367
          -15.614348412 0.85784643888 -4.3480572701 -13.822747231 1.137326479 -4.9690814018
          -18.317897797 4.5 -3.1362259388 -17.125614166 4.8216285706 -3.8245911598
          -17.24130249 3.3722190857 -3.7577986717 -18.261964798 7.7158904076 -3.1685180664
          -17.047464371 8.1076803207 -3.8697111607 -17.069683075 6.7875189781 -3.856883049
          -18.302206039 10.20442009 -3.1452856064 -17.083717346 10.624250412 -3.8487796783
          -17.087703705 9.3462114334 -3.8464784622 -18.317077637 12.711914062 -3.1366991997
          -17.097648621 13.146799088 -3.8407359123 -17.098590851 11.881742477 -3.8401937485
          -18.339542389 15.253767014 -3.1237294674 -17.116983414 15.702747345 -3.8295733929
          -17.12011528 14.438652992 -3.82776618 -18.443054199 17.915931702 -3.0639660358
          -17.207550049 18.384019852 -3.7772860527 -17.220499039 17.114910126 -3.7698099613
          -18.443054199 19.165933609 -3.0639660358 -17.162664413 19.648586273 -3.8032007217
          -18.317897797 21.75 -3.1362259388 -17.044471741 22.147729874 -3.8714394569
          -17.037504196 20.982650757 -3.8754608631 -14.942512512 22.573196411 -4.6506443024
          -13.688182831 20.199630737 -5.8091931343 -13.710507393 17.670381546 -5.7963042259
          -13.714887619 15.180541039 -5.7937746048 -13.716296196 12.700950623 -5.7929615974
          -13.7196455 10.219669342 -5.7910280228 -13.732933044 7.7310600281 -5.7833566666
          -13.778475761 5.2451825142 -5.757062912 -13.77264595 2.8578462601 -5.7604284286
          -16.708957672 2.4392507076 -3.5929141045 -15.408354759 1.9248781204 -4.3438177109
          -16.568244934 1.0670316219 -3.67415452 -15.946527481 4.0308966637 -4.5053367615
          -15.845054626 7.2683792114 -4.5639224052 -15.992736816 10.14991951 -4.4786581993
          -14.78102684 9.3069019318 -5.1782393456 -15.996722221 8.871881485 -4.4763569832
          -16.014570236 12.704963684 -4.466053009 -14.800448418 11.86388588 -5.1670255661
          -16.015508652 11.439907074 -4.4655103683 -16.026836395 15.228329659 -4.4589705467
          -14.814435959 14.388462067 -5.158949852 -16.029966354 13.964237213 -4.4571642876
          -16.054798126 17.740802765 -4.4428267479 -14.850968361 16.907382965 -5.1378588676
          -16.067747116 16.471694946 -4.4353504181 -16.004699707 20.147949219 -4.4717512131
          -14.823431015 19.364927292 -5.1537570953 -16.04958725 18.883382797 -4.445836544
          -15.96044445 22.147729874 -4.4973020554 -14.656564713 21.640312195 -5.2500972748
          -15.953478813 20.982650757 -4.5013237 -14.772209167 20.199630737 -5.1833295822
          -14.828643799 18.222345352 -5.150747776 -14.810055733 15.664016724 -5.16147995
          -14.799040794 13.129190445 -5.1678390503 -14.777677536 10.573898315 -5.1801729202
          -14.6905756 6.6265068054 -5.2304611206 -15.892986298 7.4658083916 -4.5362496376
          -14.677288055 7.9008293152 -5.2381324768 -14.862501144 4.0308966637 -5.1311998367
          -16.04158783 4.8216285706 -4.4504537582 -14.816959381 5.3024888039 -5.1574935913
          -14.856672287 2.8578462601 -5.1345643997 -16.157276154 3.3722190857 -4.3836612701
          -5.7421250343 22.79712677 -2.0063822269 -6.998067379 23.086051941 -2.7315011024
          -6.7446112633 20.614608765 -3.1747162342 -6.5243282318 18.332942963 -3.0475358963
          -7.6708631516 19.697553635 -3.7094881535 -6.5243282318 19.582942963 -3.0475358963
          -6.8127384186 16.674766541 -3.2140498161 -5.5980758667 13.107143402 -2.5127644539
          -6.8181428909 14.096821785 -3.2171700001 -5.5980758667 14.357143402 -2.5127644539
          -5.5980758667 10.642857552 -2.5127644539 -6.8169546127 11.581548691 -3.2164838314
          -5.5980758667 11.892857552 -2.5127644539 -5.5980758667 8.178571701 -2.5127644539
          -6.8139448166 9.0893545151 -3.21474576 -5.5980758667 9.428571701 -2.5127644539
          -5.5980758667 5.7142853737 -2.5127644539 -6.8158316612 6.597635746 -3.2158353329
          -5.5980758667 6.9642858505 -2.5127644539 -5.5980758667 3.2500002384 -2.5127644539
          -6.9198079109 4.0718374252 -3.2758662701 -5.5980758667 4.5 -2.5127644539
          -7.8904314041 0.85405480862 -3.1284854412 -6.6253066063 1.25 -2.398065567
          -11.546291351 2.3447685242 -5.0603952408 -11.388131142 1.137326479 -4.9690814018
          -9.1745500565 0.85405480862 -4.1968369484 -11.361866951 21.526714325 -5.8404898643
          -11.243771553 18.777145386 -5.7723083496 -11.266242981 16.166183472 -5.7852816582
          -11.275158882 13.634391785 -5.7904291153 -11.277197838 11.142983437 -5.7916064262
          -11.277543068 8.6865911484 -5.791806221 -11.292419434 6.3097615242 -5.8003950119
          -11.347327232 4.1949291229 -5.832095623 -6.6807165146 21.75 -3.1378269196
          -7.8272509575 20.614608765 -3.7997791767 -7.9366593361 22.038925171 -3.8629457951
          -7.7389903069 18.186281204 -3.7488217354 -6.8181428909 15.311107635 -3.2171700001
          -6.8169546127 12.795833588 -3.2164838314 -6.8139448166 10.303640366 -3.21474576
          -6.7192502022 8.2775993347 -3.160074234 -7.9370059967 7.9109501839 -3.8631458282
          -7.9351181984 9.1883831024 -3.8620557785 -6.6224842072 5.6415128708 -3.104206562
          -7.9442162514 5.213350296 -3.8673086166 -7.8402395248 6.5248627663 -3.8072779179
          -6.6807165146 3.2500002384 -3.1378269196 -7.9458408356 2.8540549278 -3.8682470322
          -8.002448082 4.0718374252 -3.9009287357 -10.502200127 1.2074420452 -4.9633564949
          -11.038731575 23.526714325 -5.151632309 -11.243771553 19.99143219 -5.7723083496
          -11.266242981 17.380466461 -5.7852816582 -10.189561844 15.56227684 -5.1636600494
          -10.198477745 14.244771957 -5.1688075066 -11.421239853 14.967523575 -5.8747692108
          -11.275158882 12.420106888 -5.7904291153 -11.277197838 9.9286985397 -5.7916064262
          -11.277543068 7.4723052979 -5.791806221 -11.347327232 5.4092149734 -5.832095623
          -11.438772202 3.2074418068 -5.88489151 -8.9775485992 22.943841934 -3.8335418701
          -10.237476349 22.431631088 -4.5609612465 -8.9098911285 20.614608765 -4.4248418808
          -10.279227257 21.526714325 -5.2154278755 -9.0192995071 22.038925171 -4.4880084991
          -8.9221029282 19.074375153 -4.4318919182 -7.971247673 15.689888954 -3.8829154968
          -9.1714277267 16.544961929 -4.5758395195 -7.9658432007 17.053546906 -3.879794836
          -8.9791679382 12.233491898 -4.4648385048 -10.189452171 13.072050095 -5.1635961533
          -8.9803571701 13.534480095 -4.4655246735 -8.9847545624 9.6452274323 -4.4680638313
          -10.200086594 10.484570503 -5.1697359085 -8.9877643585 10.923135757 -4.4698019028
          -9.1507968903 8.785618782 -4.5639286041 -9.0689077377 6.2369880676 -4.5166487694
          -9.0284814835 2.8540549278 -4.4933094978 -10.356131554 3.2074418068 -5.2598290443
          -9.0850877762 4.0718374252 -4.5259914398 -10.161131859 19.99143219 -5.1472454071
          -10.185898781 17.87048912 -5.1615438461 -9.002784729 16.982395172 -4.4784741402
          -10.208370209 16.473810196 -5.1745185852 -8.9893827438 14.707201958 -4.4707355499
          -10.191490173 11.794928551 -5.1647734642 -10.200432777 9.2424640656 -5.1699357033
          -10.265359879 7.7289180756 -5.2074217796 -9.0515680313 6.8542490005 -4.5066385269
          -10.280236244 6.5663747787 -5.2160096169 -10.209779739 5.0954766273 -5.1753320694
          -10.264687538 4.1949291229 -5.2070331573 -16.950431824 1.0078482628 -2.4750914574
          -13.029808044 1.137326479 -3.9260787964 -11.666788101 1.137326479 -4.0298719406
          -10.500322342 1.135170579 4.9484343529 -9.2883787155 0.93584096432 4.2487187386
          -6.724126339 1.1025553942 2.319486618 -7.9414343834 1.1025553942 3.0222997665
          -7.7042770386 1.1025553942 1.1966716051 -14.436235428 0.94821065664 3.7023696899
          -17.590473175 1.0078482628 -1.3989447355 -14.199094772 0.85784643888 -4.7350997925
          -5.4095954895 0.9951723814 0.42614758015 -5.6631941795 0.9951723814 2.0063822269
          -6.643345356 0.9951723814 0.88356721401 -3.3504903316 1.4598391056 0.14790856838
          -2.0509805679 1.4598391056 0.0018638898619 -11.741887093 1.25 5.6652522087
          -8.2673444748 0.93584096432 3.3888247013 -8.5969018936 1.1025553942 2.0164051056
          -17.095497131 0.9190300703 1.5244927406 -18.987501144 0.9190300703 0.61021244526
          -15.819281578 0.94821065664 2.7106108665 -22.44585228 1.1062501669 -1.2787692547
          -18.88876152 1.0078482628 -0.89447939396 -16.613290787 1.0670316219 -1.8707758188
          -15.973251343 1.0670316219 -2.9469225407 -15.129169464 1.0670316219 -1.8422117233
          -15.077636719 1.0521688461 -2.2281081676 -13.662384033 1.0521688461 -2.6151511669
          -14.233552933 1.0521688461 -1.1233974695 -12.001083374 0.93625152111 -3.1272962093
          -10.638061523 0.93625152111 -3.2310891151 -11.091661453 0.93625152111 -1.9810460806
          -9.3539428711 0.93625152111 -2.162737608 -7.0923476219 0.9951723814 -0.39168334007
          -11.725138664 0.94360554218 3.639683485 -12.98615551 0.94360554218 3.5939407349
          -12.463393211 0.94360554218 2.332075119 -10.10839653 1.0519243479 1.9392620325
          -11.129431725 1.0519243479 2.7991559505 -11.867685318 1.0519243479 1.4915477037
          -9.0036115646 1.1025553942 0.94566637278 -17.689210892 0.9190300703 0.1057471782
          -13.723965645 0.98134928942 2.70063591 -15.107011795 0.98134928942 1.7088769674
          -13.201203346 0.98134928942 1.4387698174 -16.205089569 0.9190300703 0.13431122899
          -12.752962112 1.0521688461 -1.4689011574 -10.204275131 0.93625152111 -1.1384923458
          -8.2767686844 1.1017010212 -1.8764792681 -7.8277659416 1.1017010212 -0.60122865438
          -9.1270999908 1.1017010212 -0.85223400593 -10.515106201 1.0519243479 0.86852324009
          -14.216604233 0.98134928942 0.31869533658 -13.218153954 1.0521688461 -0.0033229552209
          -11.402493477 1.0519243479 0.025969462469 -5.6631941795 2.2451725006 2.0063822269
          -6.8616104126 1.9310134649 2.6982879639 -5.5980758667 3.2500002384 2.5127644539
          -5.5980758667 4.5 2.5127644539 -6.8163852692 4.4104413986 3.216155529
          -6.5145015717 5.4113249779 3.0418629646 -6.5145015717 6.661324501 3.0418629646
          -7.7328109741 5.3217658997 3.7452540398 -6.8080196381 8.4322805405 3.2113256454
          -6.8145041466 11.012495995 3.215069294 -6.8174815178 13.522787094 3.2167882919
          -5.5980758667 15.571428299 2.5127644539 -5.5980758667 16.821430206 2.5127644539
          -6.8208460808 16.013090134 3.2187306881 -6.8336296082 18.501150131 3.226111412
          -5.5980758667 20.5 2.5127644539 -5.5980758667 21.75 2.5127644539
          -6.8784608841 20.981733322 3.2519946098 -6.2894449234 22.731306076 2.5591876507
          -7.5628848076 23.12874794 3.294408083 -8.6430244446 23.182065964 3.7349674702
          -12.015829086 23.75 5.6015787125 -11.423211098 21.63992691 5.8759069443
          -11.307454109 18.983997345 5.8090758324 -11.284813881 16.452041626 5.7960038185
          -11.279459953 13.9559412 5.7929129601 -11.275042534 11.464863777 5.7903623581
          -11.26444912 8.9666166306 5.7842464447 -11.24678421 6.4733257294 5.7740468979
          -11.459457397 4.1329426765 5.8968343735 -7.9225420952 2.0383963585 3.0113925934
          -7.8791327477 2.9358410835 3.8297328949 -6.6807165146 3.2500002384 3.1378269196
          -7.8990259171 4.4104413986 3.8412177563 -7.7244462967 6.9150342941 3.7404241562
          -7.9023590088 9.2112531662 3.8431420326 -6.6924142838 10.207544327 3.1445808411
          -7.9088425636 10.57718277 3.8468856812 -7.897916317 11.831501007 3.8405776024
          -6.6814880371 12.711862564 3.1382725239 -7.9008936882 13.127506256 3.8422966003
          -7.8786559105 14.418872833 3.8294575214 -6.6592502594 15.253228188 3.125433445
          -7.8820204735 15.694890022 3.8313999176 -7.7785658836 17.107225418 3.7716708183
          -6.5557961464 17.915565491 3.0657041073 -7.7913498878 18.381000519 3.7790510654
          -6.5557961464 19.165565491 3.0657041073 -7.836180687 19.647296906 3.8049342632
          -7.5698299408 21.963039398 3.298418045 -9.9467983246 22.67455101 4.487701416
          -11.307454109 20.198280334 5.8090758324 -11.284813881 17.666326523 5.7960038185
          -11.279459953 15.170227051 5.7929129601 -11.275042534 12.679148674 5.7903623581
          -11.26444912 10.180901527 5.7842464447 -11.24678421 7.6876111031 5.7740468979
          -11.459457397 5.3472285271 5.8968343735 -11.256356239 3.1351706982 5.7795739174
          -8.9617738724 2.9358410835 4.4547948837 -8.9816656113 4.4104413986 4.4662804604
          -10.173716545 3.1351706982 5.1545114517 -8.9832439423 5.6323270798 4.467192173
          -8.9748783112 7.2255954742 4.4623622894 -10.165721893 6.48092556 5.149895668
          -8.9802055359 8.7069368362 4.4654374123 -8.9866886139 10.07286644 4.4691810608
          -10.188713074 9.2412729263 5.1631698608 -8.978222847 11.382173538 4.4642930031
          -8.9812002182 12.678178787 4.4660115242 -10.190840721 11.834541321 5.1643981934
          -8.9672813416 13.942652702 4.4579753876 -8.9706459045 15.218669891 4.459918499
          -10.181340218 14.375808716 5.1589126587 -8.9298238754 16.463567734 4.4363493919
          -8.942606926 17.73733902 4.4437298775 -10.145870209 16.902515411 5.1384344101
          -8.9477405548 18.880464554 4.4466934204 -8.9925708771 20.146760941 4.4725766182
          -10.17364502 19.363311768 5.1544704437 -9.0437412262 20.981733322 4.502120018
          -9.0367965698 22.147441864 4.4981102943 -10.340568542 21.63992691 5.2508444786
          -10.224814415 20.198280334 5.184012413 -10.168512344 18.220186234 5.151506424
          -10.186693192 15.657623291 5.1620035172 -10.195257187 13.111333847 5.1669483185
          -10.199306488 10.525234222 5.1692862511 -10.183387756 7.7599310875 5.1600952148
          -10.164144516 5.2590398788 5.1489839554 -10.37681675 4.1329426765 5.2717723846
          -4.814827919 20.440555573 0.38828259706 -4.814827919 20.440555573 -0.6244815588
          -4.814827919 19.423439026 0.28785872459 -4.814827919 20.440555573 1.4010467529
          -4.9563236237 6.220510006 -1.571680069 -4.9563236237 5.0062236786 -1.571680069
          -4.9563236237 6.1716103554 -0.64461350441 -4.9563236237 7.4347953796 -1.571680069
          -4.9261798859 10.383083344 -1.5186955929 -4.9261798859 9.1687984467 -1.5186955929
          -4.9261798859 9.3838653564 -0.42476868629 -4.9422574043 12.812307358 -1.5514969826
          -4.9422574043 11.598022461 -1.5514969826 -4.9422574043 12.066223145 -0.53162801266
          -4.9512958527 15.2608881 -1.5554728508 -4.9512958527 14.046602249 -1.5554728508
          -4.9512958527 14.554649353 -0.53723400831 -4.8797264099 18.280210495 -1.4851150513
          -4.8797264099 17.065925598 -1.4851150513 -4.8797264099 17.454395294 -0.33508980274
          -5.5980758667 19.285715103 -2.5127644539 -5.5980758667 19.482887268 -1.6004239321
          -4.7681274414 4.2819809914 0.46310815215 -4.7681274414 4.2819809914 1.4758723974
          -4.7681274414 5.4962663651 1.4758723974 -4.9563236237 5.0062236786 -0.5589158535
          -4.814827919 19.226268768 1.4010467529 -5.5980758667 17.209897995 1.6372610331
          -4.7987279892 14.347372055 1.4912889004 -4.7987279892 15.561657906 1.4912889004
          -4.7987279892 14.855419159 0.48399937153 -4.7966394424 11.880729675 1.4911097288
          -4.7966394424 13.095015526 1.4911097288 -4.7966394424 12.348930359 0.48545017838
          -4.7927532196 9.4012069702 1.4804087877 -4.7927532196 10.615491867 1.4804087877
          -4.7927532196 9.61627388 0.54880732298 -4.7826228142 6.8882341385 1.3825577497
          -4.7826228142 8.102519989 1.3825577497 -4.7826228142 6.8393344879 0.28409582376
          -4.9261798859 7.9056138992 -0.59162908792 -4.9422574043 10.598802567 -0.45757001638
          -4.9512958527 13.30051899 -0.5356041193 -4.9512958527 15.649357796 -0.40544775128
          -4.8797264099 18.47738266 -0.57277476788 -4.7681274414 5.4473676682 0.37741041183
          -4.8023309708 18.016622543 1.5106134415 -4.8023309708 18.213794708 0.39742532372
          -4.8023309708 17.190807343 0.63511025906 -4.7987279892 15.950128555 0.61578559875
          -4.7966394424 13.60306263 0.48382028937 -4.7927532196 11.083694458 0.4747492671
          -4.7826228142 8.3175859451 0.4509562254 -18.360807419 3.0078482628 -2.0098731518
          -18.360807419 3.0078482628 -0.99951028824 -17.280237198 3.0078482628 -0.99986672401
          -18.459547043 2.9190301895 0.50518155098 -18.459547043 2.9190301895 1.5155446529
          -17.378976822 2.9190301895 0.5048250556 -13.565198898 2.9436058998 3.8449597359
          -12.481172562 2.9436058998 4.4708228111 -12.824515343 2.9436058998 2.8500795364
          -16.099306107 2.9482104778 3.3275256157 -15.015278816 2.9482104778 3.9533882141
          -15.272638321 2.9482104778 2.6902105808 -17.375522614 2.9190301895 2.1414077282
          -8.2086906433 3.102555275 2.4573132992 -7.1260495186 3.102555275 1.8322508335
          -8.257774353 3.102555275 0.81950193644 -9.2913303375 3.102555275 3.0823760033
          -9.0553627014 3.102555275 1.8012493849 -11.398532867 2.9436058998 3.8457603455
          -12.000741005 2.9436058998 3.061439991 -6.065117836 2.9951725006 1.519146204
          -6.065117836 2.9951725006 0.50638210773 -7.1968421936 2.9951725006 0.50639754534
          -7.2495384216 3.1017007828 -0.97841382027 -7.2495384216 3.1017007828 -1.9911779165
          -8.3812637329 3.1017007828 -0.97839838266 -11.520719528 3.137326479 -4.3263444901
          -12.603359222 3.137326479 -4.9514074326 -12.120609283 3.137326479 -3.5413007736
          -9.4093532562 2.9362514019 -2.9024987221 -10.49199295 2.9362514019 -3.5275614262
          -10.256450653 2.9362514019 -2.2463281155 -8.3321790695 3.1017007828 -2.6162407398
          -17.27678299 3.0078482628 -2.635736227 -15.215576172 3.0670313835 -3.7334303856
          -16.299602509 3.0670313835 -3.1075673103 -15.471588135 3.0670313835 -2.470287323
          -13.687386513 3.137326479 -4.3255438805 -12.947792053 3.137326479 -3.329898119
          -14.274595261 2.9482104778 2.9585080147 -16.548852921 2.9190301895 1.5040926933
          -10.80282402 3.0519244671 3.005232811 -10.566858292 3.0519244671 1.7241061926
          -11.405034065 3.0519244671 2.2209129333 -11.091882706 2.9362514019 -2.7425181866
          -9.1792755127 3.1017007828 -1.9600698948 -16.448768616 3.0078482628 -1.9984560013
          -14.475980759 3.0670313835 -2.7377843857 -12.228807449 3.0519244671 2.0095522404
          -11.364595413 3.0519244671 0.74245870113 -14.560369492 2.9813492298 1.6884768009
          -13.562325478 2.9813492298 1.9567744732 -13.996972084 2.9813492298 0.68999302387
          -15.390491486 2.9813492298 0.68920916319 -9.7692689896 3.0519244671 0.74235892296
          -11.919064522 2.9362514019 -2.5311150551 -11.053764343 2.9362514019 -1.2645568848
          -9.9765901566 3.1017007828 -0.97829866409 -14.575972557 3.0521690845 -1.75147295
          -15.407442093 3.0521690845 -0.75288367271 -14.013921738 3.0521690845 -0.75209975243
          -13.580365181 3.0521690845 -2.0189702511 -12.698114395 2.9813492298 0.68968093395
          -12.715065002 3.0521690845 -0.75241196156 -6.6224842072 6.891512394 -3.104206562
          -6.7192502022 9.5275993347 -3.160074234 -6.6928796768 12.127708435 -3.1448493004
          -6.6830692291 14.666072845 -3.1391854286 -5.5980758667 18.035713196 -2.5127644539
          -6.7511806488 17.200208664 -3.1785094738 -8.9122505188 19.528997421 -4.4262037277
          -10.163490295 18.905820847 -5.148607254 -6.6807165146 4.5 -3.1378269196
          -6.8158316612 7.8119220734 -3.2158353329 -7.908747673 10.538491249 -3.8468310833
          -7.9019470215 13.104763985 -3.8429048061 -7.911757946 11.816400528 -3.8485689163
          -7.9031362534 14.405751228 -3.8435912132 -6.8127384186 17.889053345 -3.2140498161
          -8.9803771973 18.017726898 -4.4655370712 -9.124080658 11.377835274 -4.5485033989
          -9.1122322083 13.943321228 -4.541662693 -6.6807165146 20.5 3.1378269196
          -6.704914093 7.7328357697 3.1517972946 -7.9611010551 20.981733322 3.8770570755
          -7.9148578644 7.9865455627 3.8503587246 -6.8080196381 7.2179946899 3.2113256454
          -10.378396988 5.3548288345 5.2726836205 -7.9162697792 19.715435028 3.8511738777
          -9.1233663559 8.5208806992 4.5480914116 -18.267871857 5.3299360275 -3.1651082039
          -17.075588226 5.6515645981 -3.8534734249 -14.736118317 5.3549141884 -5.2041678429
          -18.317897797 20.5 -3.1362259388 -15.915204048 6.1456460953 -4.5234212875
          -17.082389832 19.71808815 -3.8495464325 -15.831766129 8.5427026749 -4.5715937614
          -18.459671021 22.001173019 0.50518155098 -17.379299164 22.001173019 0.50487822294
          -18.459671021 22.001173019 1.5155446529 -18.95224762 21.99792099 -1.5155446529
          -17.871875763 21.99792099 -0.50548487902 -18.95224762 21.99792099 -0.50518155098
          -12.477275848 22.065387726 -4.4607229233 -12.819537163 22.065387726 -2.840085268
          -13.561302185 22.065387726 -3.8348600864 -14.949841499 21.932886124 -3.924724102
          -15.206832886 21.932886124 -2.6617407799 -16.033866882 21.932886124 -3.2988615036
          -16.803203583 21.85269165 -2.4544224739 -16.806858063 21.85269165 -0.81849968433
          -17.887228012 21.85269165 -1.8285595179 -7.204211235 21.888406754 -1.9323693514
          -8.3360614777 21.888406754 -0.9196318388 -8.2868518829 21.888406754 -2.5574321747
          -9.2061700821 21.904916763 -3.2462499142 -10.053516388 21.904916763 -2.5902600288
          -10.28881073 21.904916763 -3.8713123798 -11.394635201 22.065387726 -3.8356604576
          -11.995567322 22.065387726 -3.0506947041 -6.1440486908 22.04712677 -0.50638210773
          -7.2758989334 22.04712677 -0.50640881062 -6.1440486908 22.04712677 -1.519146204
          -6.6913695335 21.981306076 2.0719518661 -7.8232192993 21.981306076 1.0591608286
          -6.6913695335 21.981306076 1.0591875315 -12.670793533 22.066864014 4.6112604141
          -12.187883377 22.066864014 3.2014985085 -11.588153839 22.066864014 3.9861979485
          -9.936788559 22.034626007 3.7626361847 -9.7011356354 22.034626007 2.4816296101
          -8.8541479111 22.034626007 3.137573719 -7.7740092278 21.981306076 2.6970143318
          -17.375644684 22.001173019 2.1414077282 -16.429250717 21.989555359 2.9397654533
          -15.602606773 21.989555359 2.3019356728 -15.345225334 21.989555359 3.5656282902
          -13.75481987 22.066864014 3.9853975773 -13.014560699 22.066864014 2.9899384975
          -14.208076477 21.932886124 -2.9299497604 -15.976167679 21.85269165 -1.817301631
          -9.1341981888 21.888406754 -1.9014420509 -10.889740944 21.904916763 -3.0863463879
          -10.536519051 22.034626007 2.9779367447 -8.6209974289 21.981306076 2.0410702229
          -16.432905197 21.989555359 1.3032358885 -14.012202263 22.066864014 2.7217049599
          -13.560642242 21.994953156 -1.9570277929 -13.996177673 21.994953156 -0.69009190798
          -14.559398651 21.994953156 -1.6888189316 -11.956199646 22.065387726 -1.5725582838
          -15.412945747 21.85269165 -0.81857478619 -9.931055069 21.888406754 -0.91939222813
          -10.850373268 21.904916763 -1.6082100868 -11.402272224 21.963275909 2.2201976776
          -11.364105225 21.963275909 0.74222058058 -10.566887856 21.963275909 1.7238904238
          -12.228948593 21.963275909 2.0086376667 -9.7691106796 21.963275909 0.74198096991
          -15.390833855 22.000797272 0.68849027157 -13.996923447 22.000797272 0.68841516972
          -14.560535431 22.000797272 1.6871900558 -13.562893867 22.000797272 1.9554234743
          -12.697304726 21.994953156 -0.6895006299 -12.698049545 22.000797272 0.68900644779
          -18.317897797 4.5 3.1362259388 -18.336971283 12.144412994 3.1252148151
          -18.316205978 14.655766487 3.1372032166 -19.401924133 18.035713196 2.5103628635
          -18.24559021 17.192520142 3.1779720783 -19.401924133 19.285715103 2.5103628635
          -16.085277557 19.525424957 4.4252290726 -14.834039688 18.902248383 5.1476330757
          -18.52482605 8.5190734863 3.0167565346 -17.118026733 11.83368206 3.8289728165
          -17.097261429 13.095035553 3.8409612179 -17.096138 14.39544487 3.8416090012
          -18.187261581 17.889053345 3.2116487026 -17.121063232 10.55786705 3.8272194862
          -16.017152786 18.014152527 4.4645624161 -15.905496597 11.395033836 4.5290260315
          -15.886955261 13.933133125 4.5397319794 -20.185321808 19.225521088 -1.3952801228
          -20.185321808 20.439807892 -1.3952801228 -20.185321808 19.27454567 -0.47042107582
          -20.198259354 16.799861908 -1.3899582624 -20.198259354 18.014146805 -1.3899582624
          -20.198259354 18.063171387 -0.46509918571 -20.203287125 14.339213371 -1.4208079576
          -20.203287125 15.553498268 -1.4208079576 -20.203287125 15.338626862 -0.32946822047
          -20.20983696 11.853894234 -1.4777463675 -20.20983696 13.068180084 -1.4777463675
          -20.20983696 12.600143433 -0.46029376984 -19.401924133 10.134906769 -1.494540453
          -20.254861832 6.6040744781 -1.5045511723 -20.254861832 7.8183598518 -1.5045511723
          -20.254861832 7.4299330711 -0.35725367069 -19.401924133 5.5169415474 -1.6002109051
          -19.923480988 19.834972382 0.46353641152 -19.923480988 19.834972382 1.4738994837
          -19.923480988 18.62068367 1.4738994837 -20.185321808 20.439807892 -0.3849170208
          -20.185173035 5.7737307549 1.3987599611 -20.185173035 4.559445858 1.3987599611
          -20.185173035 5.5763869286 0.2881860435 -19.401924133 7.7901439667 1.6369343996
          -20.052930832 10.956683159 1.5562131405 -20.052930832 9.7423973083 1.5562131405
          -20.052930832 10.448731422 0.55130964518 -20.061788559 13.406385422 1.5535563231
          -20.061788559 12.192097664 1.5535563231 -20.061788559 12.938347816 0.55028271675
          -20.061164856 15.884184837 1.5909984112 -20.061164856 14.669898987 1.5909984112
          -20.061164856 15.669312477 0.66161209345 -19.923480988 17.406398773 1.4738994837
          -19.923480988 18.669708252 0.3780323565 -19.899097443 3.5685374737 -0.59562200308
          -19.899097443 3.5685374737 -1.6059850454 -19.899097443 4.5854787827 -0.69583272934
          -20.185173035 4.559445858 0.38839685917 -20.198259354 16.584989548 -0.29861840606
          -20.203287125 13.871174812 -0.40335538983 -20.20983696 11.345943451 -0.46192365885
          -20.226165771 9.3133850098 -1.4675602913 -20.226165771 10.019720078 -0.45173767209
          -20.226165771 8.9249572754 -0.32026287913 -20.254861832 6.4067306519 -0.59439891577
          -20.197668076 6.9833779335 1.5081173182 -20.197668076 6.7860336304 0.39754334092
          -20.197668076 7.8092360497 0.6346886158 -20.052930832 9.353969574 0.68278455734
          -20.052930832 11.70293045 0.55293959379 -20.061788559 14.405797958 0.62416988611
          -19.923480988 17.191526413 0.54451310635 -22.863920212 1.7883703709 -0.25234359503
          -22.954463959 15.676935196 0.78998690844 -23.010580063 4.6033554077 -0.6102398634
          -23.254863739 6.6607122421 -0.49379828572 -22.315950394 6.2047743797 -0.63085353374
          -22.673788071 14.041180611 -1.1408911943 -23.203287125 15.646710396 -0.40976405144
          -23.185325623 19.433414459 -0.37438896298 -23.087070465 21.963090897 -0.33894225955
          -23.185325623 20.93780899 -0.25633439422 -21.877166748 19.433414459 1.1150829792
          -22.179897308 17.217906952 0.051283031702 -22.182664871 13.398498535 -0.10827448964
          -23.052932739 10.956892967 0.54585313797 -23.052932739 9.7343959808 0.54586702585
          -24.061088562 7.2355556488 -0.13664852083 -22.258756638 6.5840768814 0.36108869314
          -22.643676758 3.7495520115 1.0264256001 -23.254863739 7.8103590012 -0.49417114258
          -21.279098511 10.19863987 0.088652789593 -22.176113129 14.669531822 -0.051336117089
          -19.929878235 1.25 -1.3949692249 -20.427053452 1.5685377121 -0.4905911088
          -21.153963089 4.9583263397 -1.0898100138 -21.48102951 8.27460289 -0.95138543844
          -21.436004639 11.095849991 -0.92458057404 -20.587245941 18.689807892 -1.8849170208
          -20.087068558 21.465087891 -1.4778878689 -21.272392273 20.904893875 -0.85244184732
          -20.488990784 23.465087891 -1.9675248861 -20.039318085 22.463008881 -0.97270643711
          -21.580102921 23.465087891 -0.3319580853 -21.848590851 3.3569078445 -1.0691963434
          -21.383583069 18.668239594 -0.76451212168 -19.478973389 23.75 1.5920174122
          -19.946453094 21.391582489 1.6281995773 -20.869932175 20.226552963 1.0813729763
          -20.984645844 17.147727966 1.0441718102 -21.122951508 14.361997604 1.1238286495
          -21.114721298 11.863067627 1.0890432596 -20.197668076 8.1976633072 1.5081173182
          -21.250600815 9.0829181671 1.0436042547 -20.599594116 6.269092083 1.9977543354
          -20.087059021 3.5347146988 1.4777913094 -21.272230148 4.09416008 0.85582506657
          -20.615013123 1.534714818 0.57245916128 -22.946451187 21.889587402 0.74641913176
          -21.905118942 17.824443817 0.89441454411 -22.033988953 15.000217438 0.93974417448
          -22.03461647 13.736701965 0.90230196714 -21.382843018 6.3285374641 0.88615107536
          -22.246261597 5.3744306564 0.25173136592 -23.087060928 2.8703126907 0.61437743902
          -16.659257889 23.02848053 3.5286581516 -16.86000061 24.038925171 3.0918967724
          -8.1981220245 24.147441864 3.2514903545 -8.0582304001 22.927333832 -3.1447241306
          -20.164117813 23.465087891 -0.37550747395 -21.033519745 21.85667038 0.15031166375
          -14.984483719 22.990350723 1.9923328161 -10.408768654 22.997903824 2.2417547703
          -3.0086958408 23.465286255 0.68384158611 -4.4169063568 23.465286255 0.54943358898
          -6.8354177475 23.028430939 0.55280542374 -3.3233346939 21.963289261 -1.0325716734
          -11.3528862 22.970304489 -3.181194067 -13.249403 23.640312195 -5.1871023178
          -13.847250938 22.998271942 -3.2354066372 -18.411920547 22.999095917 -5.9631119487e-15
          -17.015727997 23.000419617 -3.0534095764 -13.394079208 23.067663193 2.412101984
          -12.06013298 23.030143738 2.4653160572 -7.8955802917 22.86971283 0.13958242536
          -9.3277416229 22.793323517 -2.5280282497 -13.553973198 22.705698013 -4.5607800484
          -13.199816704 23.060338974 -2.2624847889 -15.357690811 22.847642899 -1.507909894
          -17.34690094 22.853862762 -0.31301486492 -15.930877686 23.001972198 1.193975091
          -13.94166851 22.99574852 -0.00091992929811 -8.8201503754 23.981306076 0.88767975569
          -9.3286304474 22.944581985 1.8011951447 -11.358136177 24.065387726 -1.7442789078
          -12.607722282 22.958230972 0.052294172347 -10.855625153 23 -0.17129489779
          -12.008859634 23 -0.87810105085 -18.361373901 2.938621521 3.1111249924
          -12.483252525 2.1936056614 5.1913099289 -13.696651459 2.0564002991 4.4907536507
          -15.399331093 22.516267776 4.2560777664 -3.6040890217 2.7098391056 1.728143096
          -2.774140358 3.7418196201 0.69125121832 -4.3806986809 6.173948288 1.8697935343
          -4.39083004 8.7226352692 1.9676445723 -4.394715786 11.237873077 1.9783455133
          -4.3968048096 13.740229607 1.9785244465 -4.8023309708 16.802337646 1.5106134415
          -3.6010587215 16.221138 0.9763738513 -4.4004068375 18.730909348 1.997849226
          -4.912940979 21.465284348 1.4801925421 -3.7277686596 20.90583992 0.85571098328
          -1.814827919 19.43416214 0.39881074429 -2.3419938087 13.445999146 1.2171523571
          -2.3456995487 10.976211548 1.2476427555 -1.7966395617 11.87163353 0.47834861279
          -1.792753458 9.3584032059 0.46766412258 -3.5507500172 5.9559292793 0.83290165663
          -3.5753760338 8.6465826035 0.83743810654 -3.5893931389 11.210507393 0.9459900856
          -3.5953676701 13.72810173 0.95687007904 -3.6171584129 18.671463013 0.88613188267
          -1.9129407406 21.963289261 0.59601092339 -2.8395924568 12.817632675 0.19549781084
          -2.8393802643 10.339365005 0.21528726816 -4.5110168457 22.215286255 -1.0325716734
          -4.912940979 21.465284348 -0.54533588886 -3.6945543289 18.935050964 -0.084068208933
          -3.8935530186 13.14462471 -1.0814415216 -3.8684368134 10.695391655 -1.0446641445
          -3.8825032711 7.7464513779 -1.0648472309 -4.912940979 3.5347149372 -1.4801925421
          -3.8692643642 4.5409388542 -1.0263441801 -4.2574186325 1.534714818 -0.54766285419
          -2.0623054504 9.3871107101 -0.68525123596 -2.0895795822 11.946492195 -0.5352050066
          -2.1642174721 14.587388039 -0.62421911955 -3.0009908676 17.002122879 -0.81372225285
          -3.0725603104 15.197086334 -0.88408023119 -2.9852101803 12.534925461 -0.82158041
          -2.9728064537 10.106958389 -0.75828880072 -2.9720022678 7.0266051292 -0.99180966616
          -1.9563236237 6.1583852768 -0.55853563547 -2.9189534187 2.9945538044 -0.23928529024
          -1.814827919 20.938556671 0.51686519384 -2.9235949516 16.738536835 0.15647782385
          -2.9199929237 15.497857094 0.13715313375 -2.7983012199 7.6943292618 -0.063100352883
          -1.9563236237 4.9674057961 -0.55108809471 -3.7244510651 5.28820467 -0.095807671547
          -18.289154053 22.602689743 -2.3181965351 -17.839477539 22.850610733 -1.3233779669
          -12.479354858 22.815383911 -5.1812105179 -16.744438171 2.0748798847 -2.4708518982
          -16.239427567 21.915538788 -3.9018702507 -6.8022875786 22.638408661 -2.4196050167
          -7.3482599258 22.935533524 -1.4259872437 -8.112739563 1.9557558298 -3.2088339329
          -6.8476147652 2.3517010212 -2.4784138203 -11.343302727 22.592098236 -4.5253095627
          -10.517564774 2.1436934471 -4.2616119385 -9.1899137497 1.7903064489 -3.495092392
          -7.1911673546 2.097728014 1.3258686066 -14.557998657 1.0670316219 -3.3339655399
          -11.682151794 2.0735781193 -3.3281269073 -9.5608863831 1.1017010212 -2.9448306561
          -5.6631941795 2.2451725006 -0.99361789227 -2.9579088688 1.534714818 -0.69370752573
          -9.4792881012 1.135170579 4.088540554 -14.654396057 1.9295598269 2.380865097
          -22.001487732 1.534714818 0.68865901232 -17.820356369 1.9268784523 -0.49432873726
          -21.813526154 1.5685377121 -0.37439119816 -16.106348038 1.0078482628 -1.37038064
          -14.871643066 2.1192004681 -2.2238686085 -12.120388985 1.137326479 -2.7798292637
          -9.5762519836 2.0379524231 -2.2430858612 -7.3146562576 2.0968735218 -0.47203171253
          -11.870796204 1.9955300093 2.3252141476 -13.204315186 1.924954772 2.2724363804
          -9.6179361343 1.1025553942 2.8762993813 -9.7635946274 2.1544797421 1.5618300438
          -8.3755884171 2.2042562962 -0.15892726183 -15.71767807 1.0521688461 -1.151961565
          -15.947561264 1.9711989164 -0.24734562635 -15.930609703 1.9003794193 1.1947472095
          -13.343452454 2.1894953251 -2.8159821033 -10.964258194 1.988175869 -0.52232867479
          -13.959075928 2.0335180759 -0.062961488962 -12.625558853 2.1040933132 -0.010183685459
          -6.724126339 2.3525555134 2.319486618 -6.6807165146 21.75 3.1378269196
          -11.598162651 22.706792831 4.7112636566 -11.241688728 2.0787761211 4.4744925499
          -7.9541559219 22.147441864 3.8730475903 -9.1344852448 2.2377259731 3.7111082077
          -8.6499681473 22.016357422 3.7389774323 -4.912940979 21.465284348 0.46742832661
          -3.8310220242 16.183956146 -1.0150597095 -4.8332452774 3.277153492 0.96949028969
          -4.912940979 3.5347149372 -0.46742838621 -3.7088022232 8.4141750336 -0.13613788784
          -3.7350106239 10.927799225 -0.071088135242 -3.7479352951 13.427331924 -0.0643633008
          -3.7500240803 14.679689407 -0.064184226096 -3.6820569038 17.725404739 0.025498427451
          -19.259906769 2.5763857365 -1.5951323509 -20.087059021 3.5347146988 0.4674282372
          -19.546607971 2.4537448883 0.97260981798 -13.916584015 1.8918162584 3.2741701603
          -16.642879486 1.8672407866 2.1964812279 -6.065117836 2.9951725006 -0.50638210773
          -14.239068031 2.2043581009 -3.5347964764 -16.303056717 3.0670313835 -1.4716980457
          -12.608608246 2.0332734585 1.4319092035 -9.8870830536 2.1536252499 -0.23607032001
          -12.314725876 1.9884204865 -2.0171992779 -19.946453094 21.391582489 0.61783653498
          -19.406124115 22.392757416 1.1230181456 -20.087068558 21.465087891 -0.46752485633
          -16.005125046 22.785575867 -2.4808316231 -5.056989193 22.512413025 -0.038953781128
          -5.6043100357 22.446592331 1.5266157389 -11.19438076 23.101491928 3.2230553627
          -8.4628772736 23.015930176 2.5589344501 -16.972949982 22.990726471 1.8087208271
          -14.436150551 23.056419373 3.0268478394 -14.588356018 22.927837372 -2.3523490429
          -8.9033584595 22.034626007 1.4997202158 -15.390089035 21.994953156 -0.69001680613
          -9.8414716721 22.85168457 -0.17759743333 -10.058766365 23 -1.1533447504
          -12.608467102 22.964075089 1.4308012724 -21.401546478 16.210502625 -0.79004001617
          -21.413125992 13.693107605 -0.87782824039 -20.226165771 10.527669907 -1.4675602913
          -21.108802795 19.274776459 0.078619413078 -21.084270477 4.1279830933 -0.20722509921
          -21.121740341 18.063402176 0.083941332996 -21.265075684 14.031311035 0.1327482909
          -21.262769699 11.524862289 0.078466795385 -21.452533722 7.1588807106 0.003566076979
          -22.036552429 3.3230850697 -0.006146166008 -22.923480988 18.828578949 0.47406452894
          -22.184923172 15.971544266 0.020433213562 -23.061790466 12.192308426 0.54319626093
          -22.682582855 16.599906921 -1.0691218376 -21.131774902 20.831392288 0.23291952908
          -22.166959763 18.429281235 0.045961108059 -21.271627426 12.760278702 0.075809910893
          -21.423835754 8.6539058685 0.040556896478 -22.204357147 5.1781587601 -0.96776247025
          -22.042798996 16.302230835 1.0115135908 -22.134666443 4.3478155136 -0.085177540779
          -19.898702621 22.389505386 0.11265500635 -15.358437538 22.853488922 -0.1294028163
          -9.2606315613 23 -0.17153449357 -4.0711302757 2.4550113678 0.7345252037
          -2.4203195572 16.121858597 1.158628583 -2.841681242 14.069990158 0.1956769079
          -2.8432664871 11.604602814 0.22598816454 -2.3153064251 8.3557405472 1.0671061277
          -2.8084323406 8.993016243 0.034750714898 -1.8797264099 18.488103867 -0.46182274818
          -2.994248867 13.769220352 -0.82555645704 -2.9888839722 11.321895599 -0.7910900712
          -2.94185853 8.7606086731 -0.93882530928 -5.5980758667 3.2500002384 -1.5
          -2.9623363018 4.4660634995 -0.33077272773 -4.978058815 2.5298871994 0.038953725249
          -3.738945961 6.6801729202 -0.18912231922 -10.657167435 2 4.3197016716
          -9.6361322403 2 3.4598078728 -20.986158371 3.1032526493 -0.12819373608
          -15.848822594 2.0600171089 -1.752037406 -19.358646393 2.4875676632 -0.090440437198
          -11.491999626 2 -0.71625876427 -3.7189331055 9.7128629684 -0.038286827505
          -3.7388966084 12.193037033 -0.060387235135 -3.6784543991 16.484725952 0.0061737420037
          -3.6810684204 3.8166954517 -0.004320226144 -21.264448166 15.294826508 0.17019046843
          -21.259422302 16.541189194 0.20104028285 -21.440036774 5.9492344856 -0.10579124093
        </DataArray>
      </Points>
      <Cells>
        <DataArray type="Int32" Name="connectivity" format="ascii" RangeMin="0" RangeMax="3295">
          1 32 206 345 519 741
          742 1363 1367 1863 32 0
          43 61 520 533 743 1368
          553 808 2 33 42 72
          521 745 532 567 856 886
          33 34 207 224 522 746
          744 859 858 1864 34 35
          208 225 523 747 748 861
          860 1865 35 36 209 516
          524 749 750 1866 1868 1867
          36 37 210 508 525 751
          752 1869 1871 1870 37 38
          211 228 526 753 754 867
          866 1872 38 39 212 229
          527 755 756 869 868 1873
          39 40 213 230 528 757
          758 871 870 1874 40 41
          206 231 529 759 760 873
          872 1875 41 1 206 345
          530 742 759 1876 1363 1863
          3 42 51 62 531 761
          542 555 885 825 43 44
          214 497 534 788 763 1877
          1879 1878 44 45 213 509
          535 765 766 1880 1882 1881
          45 46 212 217 536 767
          768 814 813 1883 46 47
          211 218 537 769 770 816
          815 1884 47 48 210 219
          538 771 772 818 817 1885
          48 49 209 220 539 773
          774 820 819 1886 49 50
          208 221 540 775 776 822
          821 1887 50 51 207 222
          541 777 778 824 823 1888
          206 32 43 497 741 743
          764 1889 1890 1877 42 33
          207 233 745 744 762 887
          1892 1891 207 34 208 225
          746 748 779 1893 861 1865
          208 35 209 516 747 750
          780 1894 1866 1867 209 36
          210 508 749 752 781 1895
          1869 1870 210 37 211 508
          751 754 782 1870 1871 1896
          211 38 212 228 753 756
          783 1872 866 1897 212 39
          213 459 755 758 784 1898
          1900 1899 213 40 214 509
          757 785 786 1881 1902 1901
          40 206 214 231 760 787
          785 873 1875 1903 51 42
          207 223 761 762 777 836
          1905 1904 214 44 213 509
          788 766 786 1901 1880 1881
          43 214 206 497 763 787
          764 1877 1878 1889 213 45
          212 217 765 768 784 1906
          814 1883 212 46 211 453
          767 770 783 1907 1909 1908
          211 47 210 454 769 772
          782 1910 1912 1911 210 48
          209 508 771 774 781 1870
          1913 1895 209 49 208 456
          773 776 780 1914 1916 1915
          208 50 207 222 775 778
          779 1917 824 1888 52 215
          5 517 790 789 543 1918
          1920 1919 53 215 52 517
          791 790 544 1921 1920 1918
          54 216 53 452 793 792
          545 1922 1924 1923 55 217
          54 453 795 794 546 1925
          1927 1926 56 218 55 454
          797 796 547 1928 1930 1929
          57 219 56 191 799 798
          548 1931 1933 1932 58 220
          57 190 801 800 549 1934
          1936 1935 59 221 58 189
          803 802 550 1937 1939 1938
          60 222 59 458 805 804
          551 1940 1942 1941 4 223
          60 504 807 806 552 1943
          1945 1944 5 215 61 334
          789 809 554 1369 1946 1370
          43 216 44 497 811 810
          534 1877 1947 1879 44 216
          45 509 810 812 535 1880
          1948 1882 62 223 4 233
          826 807 556 919 1949 920
          53 216 215 517 792 827
          791 1921 1950 1920 54 217
          216 452 794 828 793 1922
          1951 1924 55 218 217 453
          796 829 795 1925 1952 1927
          56 219 218 454 798 830
          797 1928 1953 1930 57 220
          219 455 800 831 799 1954
          1956 1955 58 221 220 456
          802 832 801 1957 1959 1958
          59 222 221 457 804 833
          803 1960 1962 1961 60 223
          222 458 806 834 805 1940
          1963 1942 61 215 43 32
          809 835 808 1368 1964 743
          43 215 216 497 835 827
          811 1877 1965 1947 216 217
          45 452 828 814 812 1924
          1951 1966 217 218 46 453
          829 816 813 1927 1952 1909
          218 219 47 454 830 818
          815 1930 1953 1912 219 220
          48 455 831 820 817 1955
          1956 1967 220 221 49 456
          832 822 819 1958 1959 1916
          221 222 50 457 833 824
          821 1961 1962 1968 222 223
          51 458 834 836 823 1942
          1963 1969 51 223 62 42
          836 826 825 761 1905 885
          63 72 7 498 837 568
          557 1970 1972 1971 64 224
          63 498 839 838 558 1973
          1974 1970 65 225 64 507
          841 840 559 1975 1977 1976
          66 226 65 480 843 842
          560 1978 1980 1979 67 227
          66 481 845 844 561 1981
          1983 1982 68 228 67 482
          847 846 562 1984 1986 1985
          69 229 68 459 849 848
          563 1987 1989 1988 70 230
          69 200 851 850 564 1990
          1992 1991 71 231 70 461
          853 852 565 1993 1995 1994
          6 232 71 334 855 854
          566 1366 1997 1996 35 226
          36 516 863 862 524 1866
          1998 1868 36 227 37 508
          865 864 525 1869 1999 1871
          41 73 1 345 874 569
          530 1876 1364 1363 73 232
          6 334 875 855 570 1365
          1997 1366 63 224 72 498
          838 857 837 1970 1974 1972
          64 225 224 498 840 876
          839 1973 2000 1974 65 226
          225 507 842 877 841 1975
          2001 1977 66 227 226 480
          844 878 843 1978 2002 1980
          67 228 227 481 846 879
          845 1981 2003 1983 68 229
          228 482 848 880 847 1984
          2004 1986 69 230 229 459
          850 881 849 1987 2005 1989
          70 231 230 460 852 882
          851 2006 2008 2007 71 232
          231 461 854 883 853 1993
          2009 1995 72 224 33 233
          857 859 856 888 2010 1892
          224 225 34 207 876 861
          858 1864 1893 746 225 226
          35 516 877 863 860 2011
          1998 1866 226 227 36 508
          878 865 862 2012 1999 1869
          227 228 37 508 879 867
          864 1999 2013 1871 228 229
          38 212 880 869 866 1897
          1873 756 229 230 39 459
          881 871 868 1989 2005 1900
          230 231 40 509 882 873
          870 2014 2015 1902 231 232
          41 206 883 884 872 1875
          2016 759 41 232 73 345
          884 875 874 1876 2017 1364
          72 233 7 498 888 889
          568 1972 2018 1971 74 234
          8 499 891 890 571 2019
          2021 2020 75 234 74 251
          892 891 572 1001 2022 1002
          7 235 75 475 894 893
          573 2023 2025 2024 76 237
          9 491 896 895 574 2026
          2028 2027 77 238 76 510
          898 897 575 2029 2031 2030
          8 238 77 359 899 898
          576 1431 2032 1432 9 239
          78 277 901 900 577 1055
          2033 1075 78 240 10 106
          903 902 578 1058 2034 614
          79 80 11 132 904 581
          579 1133 1104 643 10 240
          79 106 902 905 580 614
          2034 1134 80 239 12 115
          907 906 582 1085 2035 624
          12 241 81 314 909 908
          583 1258 2036 1298 81 242
          82 314 911 910 584 1298
          2037 1299 82 243 13 135
          913 912 585 1282 2038 648
          13 244 83 305 915 914
          586 1201 2039 1200 83 244
          84 505 914 916 587 2040
          2042 2041 84 245 4 304
          918 917 588 1202 2043 1199
          62 233 42 223 919 887
          885 826 1949 1905 42 233
          72 33 887 888 886 745
          1892 856 233 236 7 498
          922 921 889 2018 2044 1971
          234 238 8 499 923 899
          890 2021 2045 2020 75 235
          234 494 893 924 892 2046
          2048 2047 7 236 235 475
          921 925 894 2023 2049 2025
          237 239 9 491 926 901
          895 2028 2050 2027 76 238
          237 510 897 927 896 2030
          2031 2051 239 240 78 277
          928 903 900 2033 2052 1075
          79 240 80 132 905 929
          904 1133 2053 1104 239 241
          12 493 930 909 906 2054
          2056 2055 80 240 239 278
          929 928 907 1105 2058 2057
          241 242 81 506 931 911
          908 2059 2061 2060 242 243
          82 477 932 913 910 2062
          2064 2063 243 244 13 135
          933 915 912 2038 2065 648
          244 246 84 505 935 934
          916 2042 2066 2041 245 236
          4 504 937 936 917 2067
          2068 1943 84 246 245 304
          934 938 918 1202 2069 2043
          4 236 233 504 936 922
          920 1943 2068 2070 234 247
          238 499 940 939 923 2021
          2071 2045 235 247 234 479
          941 940 924 2072 2074 2073
          236 245 235 475 937 942
          925 2049 2075 2025 237 241
          239 491 943 930 926 2028
          2076 2050 238 247 237 496
          939 944 927 2077 2079 2078
          241 249 242 506 946 945
          931 2059 2080 2061 242 250
          243 483 948 947 932 2081
          2083 2082 243 250 244 483
          947 949 933 2082 2083 2084
          244 250 246 483 949 950
          935 2084 2083 2085 246 248
          245 476 952 951 938 2086
          2088 2087 235 248 247 479
          954 953 941 2072 2089 2074
          245 248 235 475 951 954
          942 2075 2090 2025 237 249
          241 506 955 946 943 2091
          2080 2059 247 249 237 496
          956 955 944 2079 2092 2078
          249 250 242 477 957 948
          945 2093 2094 2062 250 248
          246 478 958 952 950 2095
          2097 2096 248 250 247 478
          958 959 953 2097 2095 2098
          247 250 249 496 959 957
          956 2079 2099 2092 7 251
          63 475 961 960 557 2023
          2101 2100 63 252 64 31
          963 962 558 2102 2104 2103
          64 252 65 439 962 964
          559 2105 2107 2106 65 253
          66 204 966 965 560 2108
          2110 2109 66 254 67 203
          968 967 561 2111 2113 2112
          67 255 68 202 970 969
          562 2114 2116 2115 68 256
          69 201 972 971 563 2117
          2119 2118 69 257 70 200
          974 973 564 1991 2120 1990
          70 258 71 25 976 975
          565 2121 2123 2122 71 259
          6 471 978 977 566 2124
          2126 2125 6 259 85 343
          977 979 589 1358 2127 1359
          85 260 86 484 981 980
          590 2128 2130 2129 86 260
          14 344 980 982 591 1361
          2131 1362 87 74 8 499
          983 571 592 2132 2019 2020
          88 261 87 29 985 984
          593 2133 2135 2134 89 262
          88 186 987 986 594 2136
          2138 2137 90 263 89 185
          989 988 595 2139 2141 2140
          91 264 90 184 991 990
          596 2142 2144 2143 92 265
          91 183 993 992 597 2145
          2147 2146 93 266 92 182
          995 994 598 2148 2150 2149
          94 267 93 181 997 996
          599 2151 2153 2152 95 268
          94 26 998 1019 600 2154
          2156 2155 14 260 95 344
          982 999 601 1362 2131 2157
          75 251 7 475 1001 961
          573 2024 2101 2023 251 252
          63 198 1003 963 960 2158
          2160 2159 252 253 65 439
          1004 966 964 2107 2161 2106
          253 254 66 204 1005 968
          965 2110 2162 2109 254 255
          67 203 1006 970 967 2113
          2163 2112 255 256 68 435
          1007 972 969 2164 2166 2165
          256 257 69 434 1008 974
          971 2167 2169 2168 257 258
          70 434 1009 976 973 2169
          2171 2170 258 259 71 166
          1010 978 975 2172 2174 2173
          259 260 85 484 1011 981
          979 2175 2130 2128 87 261
          74 499 984 1000 983 2132
          2176 2019 88 262 261 29
          986 1012 985 2133 2177 2135
          89 263 262 186 988 1013
          987 2136 2178 2138 90 264
          263 444 990 1014 989 2179
          2181 2180 91 265 264 183
          992 1015 991 2146 2147 2182
          92 266 265 182 994 1016
          993 2149 2150 2183 93 267
          266 181 996 1017 995 2152
          2153 2184 94 268 267 181
          1019 1018 997 2151 2185 2153
          95 260 268 26 999 1020
          998 2154 2186 2156 74 261
          251 234 1000 1021 1002 891
          2187 2022 251 261 252 199
          1021 1022 1003 2188 2190 2189
          252 262 253 439 1024 1023
          1004 2107 2191 2161 253 263
          254 438 1026 1025 1005 2192
          2194 2193 254 264 255 443
          1028 1027 1006 2195 2197 2196
          255 265 256 442 1030 1029
          1007 2198 2200 2199 256 266
          257 442 1032 1031 1008 2199
          2202 2201 257 267 258 441
          1034 1033 1009 2203 2205 2204
          258 260 259 484 1035 1011
          1010 2206 2130 2175 262 252
          261 199 1024 1022 1012 2207
          2189 2190 263 253 262 445
          1026 1023 1013 2208 2210 2209
          264 254 263 444 1028 1025
          1014 2181 2211 2180 265 255
          264 443 1030 1027 1015 2212
          2196 2197 266 256 265 442
          1032 1029 1016 2202 2199 2200
          267 257 266 441 1034 1031
          1017 2205 2203 2213 268 258
          267 441 1036 1033 1018 2214
          2204 2205 260 258 268 165
          1035 1036 1020 2215 2217 2216
          96 105 15 338 1037 612
          602 2218 1352 1351 97 269
          96 462 1039 1038 603 2219
          2221 2220 98 270 97 163
          1041 1040 604 2222 2224 2223
          99 271 98 162 1043 1042
          605 2225 2227 2226 100 272
          99 161 1045 1044 606 2228
          2230 2229 101 273 100 160
          1047 1046 607 2231 2233 2232
          102 274 101 467 1049 1048
          608 2234 2236 2235 103 275
          102 158 1051 1050 609 2237
          2239 2238 104 276 103 469
          1053 1052 610 2240 2242 2241
          9 277 104 239 1055 1054
          611 901 2033 2243 105 114
          16 295 1057 623 613 2244
          1153 1152 107 276 106 287
          1060 1059 615 1137 2245 1136
          108 275 107 288 1062 1061
          616 1138 2246 1139 109 274
          108 289 1064 1063 617 1140
          2247 1141 110 273 109 290
          1066 1065 618 1142 2248 1143
          111 272 110 291 1068 1067
          619 1144 2249 1145 112 271
          111 292 1070 1069 620 1146
          2250 1147 113 270 112 293
          1072 1071 621 1148 2251 1149
          114 269 113 500 1074 1073
          622 2252 2254 2253 96 269
          105 338 1038 1056 1037 2218
          2255 1352 97 270 269 462
          1040 1076 1039 2219 2256 2221
          98 271 270 463 1042 1077
          1041 2257 2259 2258 99 272
          271 464 1044 1078 1043 2260
          2262 2261 100 273 272 465
          1046 1079 1045 2263 2265 2264
          101 274 273 466 1048 1080
          1047 2266 2268 2267 102 275
          274 467 1050 1081 1049 2234
          2269 2236 103 276 275 468
          1052 1082 1051 2270 2272 2271
          104 277 276 469 1054 1083
          1053 2240 2273 2242 105 269
          114 500 1056 1074 1057 2274
          2254 2252 106 277 78 240
          1084 1075 1058 2034 2052 903
          276 277 106 287 1083 1084
          1059 2245 2275 1136 107 275
          276 468 1061 1082 1060 2276
          2271 2272 108 274 275 467
          1063 1081 1062 2277 2236 2269
          109 273 274 466 1065 1080
          1064 2278 2267 2268 110 272
          273 465 1067 1079 1066 2279
          2264 2265 111 271 272 464
          1069 1078 1068 2280 2261 2262
          112 270 271 463 1071 1077
          1070 2281 2258 2259 113 269
          270 462 1073 1076 1072 2282
          2221 2256 116 278 115 21
          1087 1086 625 2283 2285 2284
          117 279 116 485 1089 1088
          626 2286 2288 2287 118 280
          117 155 1091 1090 627 2289
          2291 2290 119 281 118 486
          1093 1092 628 2292 2294 2293
          120 282 119 487 1095 1094
          629 2295 2297 2296 121 283
          120 488 1097 1096 630 2298
          2300 2299 122 284 121 511
          1099 1098 631 2301 2303 2302
          123 285 122 470 1101 1100
          632 2304 2306 2305 17 286
          123 338 1103 1102 633 1346
          2308 2307 124 133 18 339
          1106 645 634 2309 1348 1347
          125 285 124 294 1108 1107
          635 1156 2310 1157 126 284
          125 293 1110 1109 636 1158
          2311 1159 127 283 126 518
          1112 1111 637 2312 2314 2313
          128 282 127 514 1114 1113
          638 2315 2317 2316 129 281
          128 513 1116 1115 639 2318
          2320 2319 130 280 129 512
          1118 1117 640 2321 2323 2322
          131 279 130 288 1120 1119
          641 1168 2324 1169 132 278
          131 287 1122 1121 642 1170
          2325 1171 133 286 17 338
          1123 1103 644 1345 2308 1346
          115 278 80 239 1086 1105
          1085 2035 2057 907 116 279
          278 468 1088 1124 1087 2326
          2328 2327 117 280 279 485
          1090 1125 1089 2286 2329 2288
          118 281 280 486 1092 1126
          1091 2293 2294 2330 119 282
          281 487 1094 1127 1093 2296
          2297 2331 120 283 282 488
          1096 1128 1095 2299 2300 2332
          121 284 283 511 1098 1129
          1097 2302 2303 2333 122 285
          284 511 1100 1130 1099 2301
          2334 2303 123 286 285 470
          1102 1131 1101 2304 2335 2306
          80 278 132 240 1105 1122
          1104 929 2058 2053 124 286
          133 339 1132 1123 1106 2309
          2336 1348 285 286 124 500
          1131 1132 1107 2337 2339 2338
          125 284 285 293 1109 1130
          1108 1159 2311 2340 126 283
          284 518 1111 1129 1110 2313
          2314 2341 127 282 283 514
          1113 1128 1112 2316 2317 2342
          128 281 282 513 1115 1127
          1114 2319 2320 2343 129 280
          281 512 1117 1126 1116 2322
          2323 2344 130 279 280 512
          1119 1125 1118 2321 2345 2323
          131 278 279 288 1121 1124
          1120 1168 2346 2324 113 294
          114 500 1151 1150 622 2253
          2347 2252 16 295 134 105
          1152 1154 646 613 2244 1349
          134 124 18 339 1155 634
          647 1350 2309 1347 126 292
          127 518 1161 1160 637 2313
          2348 2312 127 291 128 514
          1163 1162 638 2316 2349 2315
          128 290 129 513 1165 1164
          639 2319 2350 2318 129 289
          130 512 1167 1166 640 2322
          2351 2321 132 287 79 240
          1170 1135 1133 2053 2352 905
          79 287 106 240 1135 1136
          1134 905 2352 2034 287 288
          107 276 1172 1139 1137 2245
          2353 1060 288 289 108 467
          1173 1141 1138 2354 2355 2277
          289 290 109 466 1174 1143
          1140 2356 2357 2278 290 291
          110 513 1175 1145 1142 2350
          2359 2358 291 292 111 514
          1176 1147 1144 2349 2361 2360
          292 293 112 463 1177 1149
          1146 2362 2363 2281 293 294
          113 462 1178 1151 1148 2364
          2365 2282 294 295 114 500
          1179 1153 1150 2347 2366 2252
          295 124 134 339 1180 1155
          1154 2367 2309 1350 294 293
          125 285 1178 1159 1156 2310
          2340 1108 124 295 294 500
          1180 1179 1157 2338 2366 2347
          293 292 126 518 1177 1161
          1158 2368 2348 2313 292 291
          127 514 1176 1163 1160 2361
          2349 2316 291 290 128 513
          1175 1165 1162 2359 2350 2319
          290 289 129 512 1174 1167
          1164 2369 2351 2322 289 288
          130 512 1173 1169 1166 2351
          2370 2321 288 287 131 278
          1172 1171 1168 2346 2325 1121
          52 5 296 489 543 1181
          1182 2371 2373 2372 53 52
          296 24 544 1182 1183 2374
          2376 2375 54 53 297 194
          545 1184 1185 2377 2379 2378
          55 54 298 193 546 1186
          1187 2380 2382 2381 56 55
          299 192 547 1188 1189 2383
          2385 2384 57 56 300 191
          548 1190 1191 1931 1932 2386
          58 57 301 190 549 1192
          1193 1934 1935 2387 59 58
          302 189 550 1194 1195 1937
          1938 2388 60 59 303 30
          551 1196 1197 2389 2391 2390
          4 60 304 504 552 1198
          1199 1943 1944 2392 83 84
          304 505 587 1202 1203 2040
          2041 2393 135 13 305 244
          648 1201 1204 2065 915 2039
          136 135 305 28 649 1204
          1205 2394 2396 2395 137 136
          306 180 650 1206 1207 2397
          2399 2398 138 137 307 179
          651 1208 1209 2400 2402 2401
          139 138 308 178 652 1210
          1211 2403 2405 2404 140 139
          309 177 653 1212 1213 2406
          2408 2407 141 140 310 176
          654 1214 1215 2409 2411 2410
          142 141 311 175 655 1216
          1217 2412 2414 2413 143 142
          312 27 656 1218 1219 2415
          2417 2416 19 143 313 473
          657 1220 1221 2418 2420 2419
          5 144 296 489 658 1222
          1181 2373 2421 2372 144 145
          313 332 659 1223 1224 1335
          1337 2422 145 19 313 473
          660 1221 1223 2423 2418 2419
          53 296 297 171 1183 1225
          1184 2424 2426 2425 54 297
          298 414 1185 1226 1186 2427
          2429 2428 55 298 299 413
          1187 1227 1188 2430 2432 2431
          56 299 300 412 1189 1228
          1190 2433 2435 2434 57 300
          301 411 1191 1229 1192 2436
          2438 2437 58 301 302 410
          1193 1230 1194 2439 2441 2440
          59 302 303 410 1195 1231
          1196 2442 2440 2443 60 303
          304 196 1197 1232 1198 2444
          2446 2445 305 83 304 505
          1200 1203 1233 2447 2040 2393
          136 305 306 28 1205 1234
          1206 2394 2395 2448 137 306
          307 180 1207 1235 1208 2397
          2398 2449 138 307 308 179
          1209 1236 1210 2400 2401 2450
          139 308 309 178 1211 1237
          1212 2403 2404 2451 140 309
          310 177 1213 1238 1214 2406
          2407 2452 141 310 311 176
          1215 1239 1216 2409 2410 2453
          142 311 312 175 1217 1240
          1218 2412 2413 2454 143 312
          313 27 1219 1241 1220 2415
          2416 2455 296 144 313 502
          1222 1224 1242 2456 2458 2457
          297 296 312 171 1225 1243
          1244 2425 2426 2459 298 297
          311 414 1226 1245 1246 2428
          2429 2460 299 298 310 417
          1227 1247 1248 2461 2463 2462
          300 299 309 418 1228 1249
          1250 2464 2466 2465 301 300
          308 419 1229 1251 1252 2467
          2469 2468 302 301 307 420
          1230 1253 1254 2470 2472 2471
          303 302 306 421 1231 1255
          1256 2473 2475 2474 304 303
          305 195 1232 1257 1233 2476
          2478 2477 306 305 303 195
          1234 1257 1256 2479 2477 2478
          307 306 302 420 1235 1255
          1254 2471 2480 2470 308 307
          301 419 1236 1253 1252 2468
          2481 2467 309 308 300 418
          1237 1251 1250 2465 2482 2464
          310 309 299 417 1238 1249
          1248 2462 2483 2461 311 310
          298 416 1239 1247 1246 2484
          2486 2485 312 311 297 172
          1240 1245 1244 2487 2489 2488
          313 312 296 172 1241 1243
          1242 2490 2487 2491 115 12
          314 493 624 1258 1259 2492
          2055 2493 116 115 315 21
          625 1260 1261 2283 2284 2494
          117 116 315 391 626 1261
          1262 2495 2497 2496 118 117
          316 155 627 1263 1264 2289
          2290 2498 119 118 317 154
          628 1265 1266 2499 2501 2500
          120 119 318 153 629 1267
          1268 2502 2504 2503 121 120
          319 152 630 1269 1270 2505
          2507 2506 122 121 320 151
          631 1271 1272 2508 2510 2509
          123 122 321 22 632 1273
          1274 2511 2513 2512 17 123
          322 337 633 1275 1276 1343
          2515 2514 19 146 323 473
          661 1277 1278 2418 2517 2516
          146 147 322 336 662 1279
          1280 1340 1342 2518 147 17
          322 337 663 1276 1279 1344
          1343 2514 135 136 324 28
          649 1283 1281 2396 2394 2519
          136 137 325 180 650 1284
          1285 2399 2397 2520 137 138
          326 179 651 1286 1287 2402
          2400 2521 138 139 327 178
          652 1288 1289 2405 2403 2522
          139 140 328 177 653 1290
          1291 2408 2406 2523 140 141
          329 176 654 1292 1293 2411
          2409 2524 141 142 330 175
          655 1294 1295 2414 2412 2525
          142 143 331 27 656 1297
          1316 2417 2415 2526 143 19
          323 473 657 1278 1296 2420
          2418 2516 115 314 315 173
          1259 1301 1260 2527 2529 2528
          117 315 316 391 1262 1302
          1263 2495 2496 2530 118 316
          317 155 1264 1303 1265 2289
          2498 2531 119 317 318 154
          1266 1304 1267 2499 2500 2532
          120 318 319 153 1268 1305
          1269 2502 2503 2533 121 319
          320 387 1270 1306 1271 2534
          2536 2535 122 320 321 386
          1272 1307 1273 2537 2539 2538
          123 321 322 170 1274 1308
          1275 2540 2542 2541 323 146
          322 336 1277 1280 1309 2543
          1340 2518 82 135 324 243
          1282 1281 1300 913 2038 2544
          324 136 325 28 1283 1285
          1310 2519 2394 2545 325 137
          326 180 1284 1287 1311 2520
          2397 2546 326 138 327 396
          1286 1289 1312 2547 2549 2548
          327 139 328 177 1288 1291
          1313 2550 2408 2523 328 140
          329 176 1290 1293 1314 2551
          2411 2524 329 141 330 175
          1292 1295 1315 2552 2414 2525
          330 142 331 175 1294 1316
          1317 2525 2412 2553 331 143
          323 27 1297 1296 1318 2526
          2415 2554 314 82 324 477
          1299 1300 1319 2555 2063 2556
          315 314 324 174 1301 1319
          1320 2557 2559 2558 316 315
          325 391 1302 1321 1322 2530
          2496 2560 317 316 326 390
          1303 1323 1324 2561 2563 2562
          318 317 327 395 1304 1325
          1326 2564 2566 2565 319 318
          328 394 1305 1327 1328 2567
          2569 2568 320 319 329 387
          1306 1329 1330 2535 2536 2570
          321 320 330 386 1307 1331
          1332 2538 2539 2571 322 321
          323 169 1308 1333 1309 2572
          2574 2573 324 325 315 174
          1310 1321 1320 2558 2575 2557
          325 326 316 397 1311 1323
          1322 2576 2578 2577 326 327
          317 396 1312 1325 1324 2547
          2548 2579 327 328 318 395
          1313 1327 1326 2565 2580 2564
          328 329 319 394 1314 1329
          1328 2568 2581 2567 329 330
          320 393 1315 1331 1330 2582
          2584 2583 330 331 321 169
          1317 1334 1332 2585 2586 2574
          331 323 321 169 1318 1333
          1334 2586 2573 2574 5 332
          144 489 1336 1335 658 2373
          2587 2421 145 335 19 473
          1339 1338 660 2423 2588 2418
          19 336 146 473 1341 1340
          661 2418 2589 2517 148 340
          14 367 1354 1353 664 1451
          2590 1449 149 340 148 350
          1355 1354 665 1452 2591 1453
          15 342 149 472 1379 1357
          666 2592 2594 2593 86 344
          85 484 1361 1360 590 2129
          2595 2128 5 333 332 489
          1372 1371 1336 2373 2596 2587
          332 335 145 313 1373 1339
          1337 2422 2597 1223 335 336
          19 473 1374 1341 1338 2588
          2589 2418 336 337 147 322
          1375 1344 1342 2518 2514 1279
          337 338 17 123 1376 1346
          1343 2515 2307 633 338 339
          133 286 1377 1348 1345 2308
          2336 1123 134 339 105 295
          1350 1378 1349 1154 2367 2244
          338 342 15 492 1380 1379
          1351 2598 2600 2599 105 339
          338 500 1378 1377 1352 2274
          2602 2601 340 344 14 95
          1381 1362 1353 2603 2157 601
          149 341 340 350 1356 1382
          1355 1452 2604 2591 342 341
          149 472 1383 1356 1357 2594
          2605 2593 343 334 6 471
          1384 1366 1358 2606 2607 2125
          85 344 343 484 1360 1385
          1359 2128 2595 2608 73 334
          345 232 1365 1386 1364 875
          1997 2017 345 61 32 215
          1387 1368 1367 2609 809 1964
          334 333 5 489 1388 1372
          1369 2610 2596 2373 61 345
          334 215 1387 1386 1370 809
          2609 1946 333 346 332 502
          1390 1389 1371 2611 2613 2612
          332 346 335 515 1389 1391
          1373 2614 2616 2615 335 347
          336 490 1393 1392 1374 2617
          2619 2618 336 347 337 490
          1392 1394 1375 2618 2619 2620
          337 342 338 492 1395 1380
          1376 2621 2600 2598 340 349
          344 503 1397 1396 1381 2622
          2624 2623 341 349 340 495
          1398 1397 1382 2625 2627 2626
          342 348 341 472 1400 1399
          1383 2594 2628 2605 343 333
          334 471 1401 1388 1384 2606
          2629 2607 344 349 343 474
          1396 1402 1385 2630 2632 2631
          333 343 346 471 1401 1403
          1390 2629 2606 2633 346 347
          335 515 1404 1393 1391 2616
          2634 2615 347 348 337 490
          1406 1405 1394 2619 2635 2620
          337 348 342 501 1405 1400
          1395 2636 2638 2637 341 348
          349 495 1399 1407 1398 2625
          2639 2627 349 346 343 474
          1408 1403 1402 2632 2640 2631
          346 349 347 515 1408 1409
          1404 2616 2641 2634 347 349
          348 495 1409 1407 1406 2642
          2627 2639 15 350 96 492
          1411 1410 602 2599 2644 2643
          96 351 97 23 1413 1412
          603 2645 2647 2646 97 351
          98 403 1412 1414 604 2648
          2650 2649 98 352 99 162
          1416 1415 605 2226 2651 2225
          99 353 100 161 1418 1417
          606 2229 2652 2228 100 354
          101 160 1420 1419 607 2232
          2653 2231 101 355 102 159
          1422 1421 608 2654 2656 2655
          102 356 103 158 1424 1423
          609 2238 2657 2237 103 357
          104 20 1426 1425 610 2658
          2660 2659 104 358 9 491
          1428 1427 611 2661 2662 2027
          9 358 76 491 1427 1429
          574 2027 2662 2026 76 358
          77 510 1429 1430 575 2030
          2663 2029 8 359 87 238
          1431 1433 592 899 2032 2664
          87 359 88 29 1433 1434
          593 2134 2665 2133 88 360
          89 186 1436 1435 594 2137
          2666 2136 89 361 90 185
          1438 1437 595 2140 2667 2139
          90 362 91 184 1440 1439
          596 2143 2668 2142 91 363
          92 183 1442 1441 597 2146
          2669 2145 92 364 93 182
          1444 1443 598 2149 2670 2148
          93 365 94 181 1446 1445
          599 2152 2671 2151 94 366
          95 26 1448 1447 600 2155
          2672 2154 95 367 14 340
          1450 1449 601 2603 2590 1353
          149 350 15 472 1452 1411
          666 2593 2673 2592 350 351
          96 167 1454 1413 1410 2674
          2676 2675 351 352 98 403
          1455 1416 1414 2650 2677 2649
          352 353 99 401 1456 1418
          1415 2678 2680 2679 353 354
          100 400 1457 1420 1417 2681
          2683 2682 354 355 101 399
          1458 1422 1419 2684 2686 2685
          355 356 102 398 1459 1424
          1421 2687 2689 2688 356 357
          103 398 1460 1426 1423 2689
          2691 2690 357 358 104 491
          1461 1428 1425 2692 2662 2661
          358 359 77 510 1462 1432
          1430 2663 2693 2029 359 360
          88 29 1463 1436 1434 2665
          2694 2133 360 361 89 186
          1464 1438 1435 2666 2695 2136
          361 362 90 185 1465 1440
          1437 2667 2696 2139 362 363
          91 184 1466 1442 1439 2668
          2697 2142 363 364 92 183
          1467 1444 1441 2669 2698 2145
          364 365 93 182 1468 1446
          1443 2670 2699 2148 365 366
          94 181 1469 1448 1445 2671
          2700 2151 366 367 95 26
          1470 1450 1447 2672 2701 2154
          367 350 148 340 1471 1453
          1451 2590 2591 1354 350 367
          351 168 1471 1472 1454 2702
          2704 2703 351 365 352 404
          1474 1473 1455 2705 2707 2706
          352 364 353 405 1476 1475
          1456 2708 2710 2709 353 363
          354 406 1478 1477 1457 2711
          2713 2712 354 362 355 407
          1480 1479 1458 2714 2716 2715
          355 361 356 408 1482 1481
          1459 2717 2719 2718 356 360
          357 409 1484 1483 1460 2720
          2722 2721 357 359 358 187
          1485 1462 1461 2723 2725 2724
          359 357 360 187 1485 1483
          1463 2725 2723 2726 360 356
          361 408 1484 1481 1464 2727
          2718 2719 361 355 362 407
          1482 1479 1465 2728 2715 2716
          362 354 363 406 1480 1477
          1466 2729 2712 2713 363 353
          364 405 1478 1475 1467 2730
          2709 2710 364 352 365 404
          1476 1473 1468 2731 2706 2707
          365 351 366 168 1474 1486
          1469 2732 2703 2733 366 351
          367 168 1486 1472 1470 2733
          2703 2704 150 368 21 468
          1488 1487 667 2734 2736 2735
          20 368 150 468 1489 1488
          668 2737 2736 2734 151 369
          22 511 1491 1490 669 2738
          2740 2739 152 369 151 511
          1492 1491 670 2741 2740 2738
          153 370 152 488 1494 1493
          671 2742 2744 2743 154 371
          153 487 1496 1495 672 2745
          2747 2746 155 372 154 486
          1498 1497 673 2748 2750 2749
          156 373 155 485 1499 1518
          674 2751 2753 2752 21 368
          156 116 1487 1500 675 2283
          2755 2754 157 163 23 462
          1501 684 676 2756 2758 2757
          22 369 157 511 1490 1502
          677 2739 2740 2759 158 368
          20 468 1503 1489 678 2760
          2736 2737 159 373 158 102
          1505 1504 679 2655 2761 2238
          160 372 159 466 1507 1506
          680 2762 2764 2763 161 371
          160 465 1509 1508 681 2765
          2767 2766 162 370 161 464
          1511 1510 682 2768 2770 2769
          163 369 162 463 1513 1512
          683 2771 2773 2772 152 370
          369 488 1493 1514 1492 2743
          2744 2774 153 371 370 487
          1495 1515 1494 2746 2747 2775
          154 372 371 486 1497 1516
          1496 2749 2750 2776 155 373
          372 486 1518 1517 1498 2748
          2777 2750 156 368 373 485
          1500 1519 1499 2751 2778 2753
          157 369 163 462 1502 1513
          1501 2756 2779 2758 158 373
          368 467 1504 1519 1503 2780
          2782 2781 159 372 373 466
          1506 1517 1505 2763 2764 2783
          160 371 372 465 1508 1516
          1507 2766 2767 2784 161 370
          371 464 1510 1515 1509 2769
          2770 2785 162 369 370 463
          1512 1514 1511 2772 2773 2786
          24 374 164 489 1521 1520
          685 2787 2789 2788 164 374
          25 471 1520 1522 686 2790
          2792 2791 165 375 26 503
          1524 1523 687 2793 2795 2794
          166 376 165 484 1526 1525
          688 2796 2798 2797 25 374
          166 471 1522 1527 689 2791
          2792 2799 167 377 23 472
          1529 1528 690 2800 2802 2801
          168 378 167 472 1531 1530
          691 2803 2804 2800 26 379
          168 503 1533 1532 692 2794
          2806 2805 23 377 157 492
          1528 1534 676 2807 2809 2808
          157 377 22 501 1534 1535
          677 2810 2812 2811 169 380
          27 473 1537 1536 693 2813
          2815 2814 170 381 169 490
          1539 1538 694 2816 2818 2817
          22 377 170 501 1535 1540
          695 2811 2812 2819 171 374
          24 489 1541 1521 696 2820
          2789 2787 172 382 171 502
          1543 1542 697 2821 2823 2822
          27 383 172 473 1545 1544
          698 2814 2825 2824 375 379
          26 503 1546 1533 1523 2795
          2806 2794 165 376 375 484
          1525 1547 1524 2797 2798 2826
          166 374 376 471 1527 1548
          1526 2799 2792 2827 167 378
          377 472 1530 1549 1529 2800
          2804 2802 168 379 378 495
          1532 1550 1531 2828 2830 2829
          380 383 27 473 1551 1545
          1536 2815 2825 2814 169 381
          380 490 1538 1552 1537 2817
          2818 2831 170 377 381 501
          1540 1553 1539 2819 2812 2832
          171 382 374 489 1542 1554
          1541 2820 2833 2789 172 383
          382 502 1544 1555 1543 2821
          2834 2823 375 385 379 495
          1557 1556 1546 2835 2836 2830
          376 384 375 474 1559 1558
          1547 2837 2839 2838 374 384
          376 474 1560 1559 1548 2840
          2839 2837 378 385 377 495
          1562 1561 1549 2829 2836 2841
          379 385 378 495 1556 1562
          1550 2830 2836 2829 380 385
          383 490 1564 1563 1551 2831
          2843 2842 381 385 380 490
          1565 1564 1552 2818 2843 2831
          377 385 381 501 1561 1565
          1553 2812 2844 2832 382 384
          374 515 1566 1560 1554 2845
          2847 2846 383 384 382 515
          1567 1566 1555 2848 2847 2845
          375 384 385 474 1558 1568
          1557 2838 2839 2849 385 384
          383 515 1568 1567 1563 2850
          2847 2848 151 22 386 122
          669 1569 1570 2508 2513 2537
          152 151 386 121 670 1570
          1571 2505 2510 2851 153 152
          387 120 671 1572 1573 2502
          2507 2852 154 153 388 119
          672 1574 1575 2499 2504 2853
          155 154 389 118 673 1576
          1577 2289 2501 2854 156 155
          390 117 674 1578 1579 2855
          2290 2856 21 156 391 116
          675 1580 1581 2283 2754 2497
          173 21 391 315 699 1581
          1582 2528 2494 2496 174 173
          392 315 700 1583 1584 2557
          2528 2857 28 174 392 325
          701 1584 1585 2545 2575 2858
          27 175 169 331 702 1587
          693 2526 2553 2586 175 176
          393 329 703 1588 1586 2552
          2524 2582 176 177 394 328
          704 1589 1590 2551 2523 2568
          177 178 395 327 705 1591
          1592 2550 2522 2565 178 179
          396 138 706 1593 1594 2405
          2400 2549 179 180 397 326
          707 1596 1609 2521 2546 2578
          180 28 392 325 708 1585
          1595 2520 2545 2858 170 169
          386 321 694 1598 1599 2542
          2574 2538 22 170 386 122
          695 1599 1569 2513 2859 2537
          152 386 387 320 1571 1600
          1572 2860 2539 2535 153 387
          388 319 1573 1601 1574 2533
          2536 2861 154 388 389 318
          1575 1602 1576 2532 2863 2862
          155 389 390 317 1577 1603
          1578 2531 2864 2561 156 390
          391 316 1579 1604 1580 2865
          2563 2530 173 391 392 315
          1582 1605 1583 2528 2496 2857
          169 175 393 330 1587 1586
          1597 2585 2525 2584 393 176
          394 329 1588 1590 1606 2582
          2524 2581 394 177 395 328
          1589 1592 1607 2568 2523 2580
          395 178 396 327 1591 1594
          1608 2565 2522 2548 396 179
          397 326 1593 1609 1610 2547
          2521 2578 397 180 392 325
          1596 1595 1611 2576 2520 2858
          386 169 393 330 1598 1597
          1612 2571 2585 2584 387 386
          393 320 1600 1612 1613 2535
          2539 2583 388 387 394 319
          1601 1614 1615 2861 2536 2567
          389 388 395 318 1602 1616
          1617 2862 2863 2564 390 389
          396 317 1603 1618 1619 2561
          2864 2579 391 390 392 316
          1604 1620 1605 2530 2563 2866
          393 394 387 329 1606 1614
          1613 2582 2581 2570 394 395
          388 328 1607 1616 1615 2568
          2580 2867 395 396 389 327
          1608 1618 1617 2565 2548 2868
          396 397 390 326 1610 1621
          1619 2547 2578 2562 397 392
          390 316 1611 1620 1621 2577
          2866 2563 158 20 188 103
          678 718 1622 2237 2658 2869
          159 158 398 102 679 1623
          1624 2655 2238 2688 160 159
          399 101 680 1625 1626 2231
          2654 2685 161 160 400 100
          681 1627 1628 2228 2232 2682
          162 161 401 99 682 1629
          1630 2225 2229 2679 163 162
          402 98 683 1631 1632 2222
          2226 2870 23 163 403 97
          684 1633 1634 2646 2223 2648
          167 23 403 351 690 1634
          1635 2676 2647 2650 168 167
          403 351 691 1635 1636 2703
          2676 2650 26 168 181 366
          692 1638 709 2672 2733 2700
          182 181 404 365 710 1639
          1640 2699 2671 2707 183 182
          405 364 711 1641 1642 2698
          2670 2710 184 183 406 363
          712 1643 1644 2697 2669 2713
          185 184 407 362 713 1645
          1646 2696 2668 2716 186 185
          408 361 714 1647 1648 2695
          2667 2719 29 186 409 360
          715 1649 1650 2694 2666 2722
          187 29 409 360 716 1650
          1651 2726 2694 2722 188 187
          409 357 717 1651 1652 2871
          2723 2721 158 188 398 103
          1622 1653 1623 2237 2869 2690
          159 398 399 355 1624 1654
          1625 2656 2687 2686 160 399
          400 354 1626 1655 1627 2653
          2684 2683 161 400 401 353
          1628 1656 1629 2652 2681 2680
          162 401 402 352 1630 1657
          1631 2651 2678 2872 163 402
          403 352 1632 1658 1633 2873
          2872 2677 168 403 404 351
          1636 1659 1637 2703 2650 2705
          181 168 404 366 1638 1637
          1639 2700 2733 2874 182 404
          405 364 1640 1660 1641 2670
          2731 2710 183 405 406 363
          1642 1661 1643 2669 2730 2713
          184 406 407 362 1644 1662
          1645 2668 2729 2716 185 407
          408 361 1646 1663 1647 2667
          2728 2719 186 408 409 360
          1648 1664 1649 2666 2727 2722
          188 409 398 356 1652 1665
          1653 2875 2720 2689 399 398
          408 355 1654 1666 1667 2686
          2687 2717 400 399 407 354
          1655 1668 1669 2683 2684 2714
          401 400 406 353 1656 1670
          1671 2680 2681 2711 402 401
          405 352 1657 1672 1673 2872
          2678 2708 403 402 404 352
          1658 1674 1659 2677 2872 2706
          405 404 402 364 1660 1674
          1673 2710 2731 2876 406 405
          401 353 1661 1672 1671 2711
          2709 2680 407 406 400 354
          1662 1670 1669 2714 2712 2683
          408 407 399 355 1663 1668
          1667 2717 2715 2686 409 408
          398 356 1664 1666 1665 2720
          2718 2689 189 30 410 59
          719 1675 1676 1937 2391 2442
          190 189 410 58 720 1676
          1677 1934 1938 2439 191 190
          411 57 721 1678 1679 1931
          1935 2436 192 191 412 56
          722 1680 1681 2383 1932 2433
          193 192 413 55 723 1682
          1683 2380 2385 2430 194 193
          414 54 724 1684 1685 2377
          2382 2427 24 194 415 53
          725 1686 1687 2374 2379 2877
          171 24 415 53 696 1687
          1688 2424 2374 2877 172 171
          415 297 697 1688 1689 2488
          2425 2878 27 172 416 312
          698 1690 1691 2416 2487 2879
          175 27 416 312 702 1691
          1692 2454 2416 2879 176 175
          416 311 703 1692 1693 2453
          2413 2484 177 176 417 310
          704 1694 1695 2452 2410 2462
          178 177 418 309 705 1696
          1697 2451 2407 2465 179 178
          419 308 706 1698 1699 2450
          2404 2468 180 179 420 307
          707 1700 1701 2449 2401 2471
          28 180 421 306 708 1702
          1703 2448 2398 2474 195 28
          421 306 726 1703 1704 2479
          2448 2474 196 195 421 303
          727 1704 1705 2446 2478 2473
          30 196 410 59 728 1706
          1675 2391 2880 2442 190 410
          411 301 1677 1707 1678 2387
          2441 2437 191 411 412 300
          1679 1708 1680 2386 2438 2434
          192 412 413 299 1681 1709
          1682 2384 2435 2431 193 413
          414 298 1683 1710 1684 2381
          2432 2428 194 414 415 297
          1685 1711 1686 2378 2429 2878
          172 415 416 297 1689 1712
          1690 2488 2878 2881 176 416
          417 310 1693 1713 1694 2410
          2486 2462 177 417 418 309
          1695 1714 1696 2407 2483 2465
          178 418 419 308 1697 1715
          1698 2404 2482 2468 179 419
          420 307 1699 1716 1700 2401
          2481 2471 180 420 421 306
          1701 1717 1702 2398 2480 2474
          196 421 410 302 1705 1718
          1706 2882 2475 2440 411 410
          420 301 1707 1719 1720 2437
          2441 2472 412 411 419 300
          1708 1721 1722 2434 2438 2469
          413 412 418 299 1709 1723
          1724 2431 2435 2466 414 413
          417 298 1710 1725 1726 2428
          2432 2463 415 414 416 297
          1711 1727 1712 2878 2429 2881
          417 416 414 310 1713 1727
          1726 2462 2486 2883 418 417
          413 299 1714 1725 1724 2466
          2461 2431 419 418 412 300
          1715 1723 1722 2469 2464 2434
          420 419 411 301 1716 1721
          1720 2472 2467 2437 421 420
          410 302 1717 1719 1718 2475
          2470 2440 197 31 422 475
          729 1728 1729 2884 2886 2885
          30 197 422 504 730 1729
          1730 2887 2889 2888 28 195
          423 483 726 1731 1732 2890
          2892 2891 195 196 425 505
          727 1733 1734 2893 2895 2894
          196 30 422 476 728 1730
          1735 2896 2898 2897 21 173
          426 506 699 1736 1737 2899
          2901 2900 173 174 427 477
          700 1738 1739 2902 2904 2903
          174 28 424 483 701 1740
          1741 2905 2890 2906 150 21
          426 493 667 1737 1742 2907
          2909 2908 20 150 426 491
          668 1742 1743 2910 2912 2911
          29 187 428 499 716 1744
          1745 2913 2915 2914 187 188
          430 510 717 1746 1747 2916
          2918 2917 188 20 426 491
          718 1743 1748 2919 2910 2911
          31 198 422 475 731 1749
          1728 2886 2920 2885 198 199
          431 494 732 1750 1751 2921
          2923 2922 199 29 429 499
          733 1752 1753 2924 2913 2925
          423 195 425 505 1731 1734
          1754 2926 2893 2894 28 423
          424 483 1732 1755 1740 2890
          2891 2906 425 196 422 476
          1733 1735 1756 2927 2896 2897
          426 173 427 506 1736 1739
          1757 2900 2901 2928 427 174
          424 477 1738 1741 1758 2903
          2904 2929 428 187 430 510
          1744 1747 1759 2930 2916 2917
          29 428 429 499 1745 1760
          1752 2913 2914 2925 430 188
          426 491 1746 1748 1761 2931
          2919 2911 422 198 431 494
          1749 1751 1762 2932 2921 2922
          431 199 429 499 1750 1753
          1763 2933 2924 2925 423 425
          432 478 1754 1764 1765 2934
          2936 2935 424 423 433 483
          1755 1766 1767 2906 2891 2937
          425 422 432 476 1756 1768
          1764 2927 2897 2938 426 427
          433 506 1757 1769 1770 2900
          2928 2939 427 424 433 477
          1758 1767 1769 2903 2929 2940
          428 430 433 496 1759 1771
          1772 2941 2943 2942 429 428
          433 496 1760 1772 1773 2944
          2941 2942 430 426 433 496
          1761 1770 1771 2943 2945 2942
          422 431 432 479 1762 1774
          1768 2946 2948 2947 431 429
          432 479 1763 1775 1774 2948
          2949 2947 423 432 433 478
          1765 1776 1766 2934 2935 2950
          429 433 432 479 1773 1776
          1775 2949 2951 2947 200 25
          166 70 734 689 1777 1990
          2121 2952 201 200 434 69
          735 1778 1779 2118 1991 2168
          202 201 435 68 736 1780
          1781 2115 2117 2165 203 202
          436 67 737 1782 1783 2112
          2114 2953 204 203 437 66
          738 1784 1785 2109 2111 2954
          205 204 438 65 739 1786
          1787 2955 2108 2956 31 205
          439 64 740 1788 1789 2103
          2957 2105 198 31 439 252
          731 1789 1790 2160 2104 2107
          199 198 440 252 732 1791
          1792 2189 2160 2958 29 199
          440 262 733 1792 1793 2177
          2207 2959 26 181 441 268
          709 1794 1795 2156 2185 2214
          181 182 441 266 710 1796
          1794 2184 2150 2213 182 183
          442 265 711 1797 1798 2183
          2147 2200 183 184 443 264
          712 1799 1800 2182 2144 2197
          184 185 444 90 713 1801
          1802 2143 2139 2179 185 186
          445 263 714 1804 1817 2141
          2178 2208 186 29 440 262
          715 1793 1803 2138 2177 2959
          165 26 441 268 687 1795
          1805 2216 2156 2214 166 165
          441 258 688 1805 1806 2172
          2217 2204 200 166 434 70
          1777 1807 1778 1990 2952 2170
          201 434 435 69 1779 1808
          1780 2118 2168 2960 202 435
          436 255 1781 1809 1782 2116
          2164 2961 203 436 437 255
          1783 1810 1784 2163 2961 2962
          204 437 438 254 1785 1811
          1786 2162 2963 2193 205 438
          439 253 1787 1812 1788 2964
          2192 2161 198 439 440 252
          1790 1813 1791 2160 2107 2958
          441 182 442 266 1796 1798
          1814 2213 2150 2202 442 183
          443 265 1797 1800 1815 2200
          2147 2212 443 184 444 264
          1799 1802 1816 2197 2144 2181
          444 185 445 263 1801 1817
          1818 2180 2141 2208 445 186
          440 262 1804 1803 1819 2209
          2138 2959 166 441 434 258
          1806 1820 1807 2172 2204 2171
          435 434 442 256 1808 1821
          1822 2166 2167 2199 436 435
          442 256 1809 1822 1823 2965
          2166 2199 437 436 443 255
          1810 1824 1825 2962 2961 2196
          438 437 444 254 1811 1826
          1827 2193 2963 2211 439 438
          440 253 1812 1828 1813 2161
          2192 2966 441 442 434 257
          1814 1821 1820 2203 2201 2169
          442 443 436 265 1815 1824
          1823 2200 2212 2967 443 444
          437 264 1816 1826 1825 2197
          2181 2968 444 445 438 263
          1818 1829 1827 2180 2208 2194
          445 440 438 253 1819 1828
          1829 2210 2966 2192 189 446
          30 457 1831 1830 719 2969
          2971 2970 190 446 189 456
          1832 1831 720 2972 2974 2973
          191 447 190 455 1834 1833
          721 2975 2977 2976 192 448
          191 454 1836 1835 722 2978
          2980 2979 193 449 192 55
          1838 1837 723 2380 2981 2385
          194 450 193 452 1839 1861
          724 2982 2984 2983 24 451
          194 53 1841 1840 725 2374
          2985 2379 197 205 31 507
          1842 740 729 2986 2988 2987
          30 446 197 457 1830 1843
          730 2970 2971 2989 200 451
          25 460 1845 1844 734 2990
          2992 2991 201 450 200 69
          1847 1846 735 2118 2993 1991
          202 449 201 482 1849 1848
          736 2994 2996 2995 203 448
          202 481 1851 1850 737 2997
          2999 2998 204 447 203 480
          1853 1852 738 3000 3002 3001
          205 446 204 507 1855 1854
          739 2988 3004 3003 164 451
          24 517 1856 1841 685 3005
          3007 3006 25 451 164 460
          1844 1856 686 2991 2992 3008
          190 447 446 456 1833 1857
          1832 2972 3009 2974 191 448
          447 455 1835 1858 1834 2975
          3010 2977 192 449 448 454
          1837 1859 1836 2978 3011 2980
          193 450 449 453 1861 1860
          1838 3012 3014 3013 194 451
          450 452 1840 1862 1839 2982
          3015 2984 197 446 205 507
          1843 1855 1842 2986 3004 2988
          200 450 451 459 1846 1862
          1845 3016 3018 3017 201 449
          450 482 1848 1860 1847 2995
          2996 3019 202 448 449 482
          1850 1859 1849 2994 3020 2996
          203 447 448 481 1852 1858
          1851 2997 3021 2999 204 446
          447 507 1854 1857 1853 3003
          3004 3022 32 206 345 497
          741 1863 1367 1890 1889 3023
          207 33 224 233 744 859
          1864 1891 1892 2010 35 208
          225 516 747 1865 860 1866
          1894 2011 36 209 516 508
          749 1867 1868 1869 1895 3024
          211 37 228 508 754 867
          1872 1896 1871 2013 39 212
          229 459 755 1873 868 1900
          1898 1989 213 39 230 459
          758 871 1874 1899 1900 2005
          40 213 230 509 757 1874
          870 1902 1881 2014 206 41
          345 232 759 1876 1863 2016
          884 2017 44 214 497 509
          788 1878 1879 1880 1901 3025
          45 213 509 452 765 1881
          1882 1966 3026 3027 46 212
          217 453 767 1883 813 1909
          1907 1927 211 46 218 453
          770 816 1884 1908 1909 1952
          47 211 218 454 769 1884
          815 1912 1910 1930 210 47
          219 454 772 818 1885 1911
          1912 1953 48 210 219 508
          771 1885 817 1913 1870 3028
          209 48 220 455 774 820
          1886 3029 1967 1956 49 209
          220 456 773 1886 819 1916
          1914 1958 208 49 221 456
          776 822 1887 1915 1916 1959
          50 208 221 457 775 1887
          821 1968 3030 1961 51 207
          222 458 777 1888 823 1969
          3031 1942 32 43 497 215
          743 1877 1890 1964 835 1965
          207 42 233 223 762 887
          1891 1904 1905 1949 208 207
          225 457 779 1893 1865 3030
          3032 3033 209 208 516 456
          780 1894 1867 1914 1915 3034
          211 210 508 454 782 1870
          1896 1910 1911 3035 212 211
          228 482 783 1872 1897 3037
          3036 1986 213 212 459 509
          784 1898 1899 1881 3038 3039
          40 214 509 231 785 1901
          1902 873 1903 2015 206 214
          231 497 787 1903 1875 1889
          1878 3040 207 51 223 458
          777 836 1904 3031 1969 1963
          212 213 217 452 784 1906
          1883 3041 3026 1951 213 45
          217 452 765 814 1906 3026
          1966 1951 211 212 453 482
          783 1907 1908 3036 3037 3042
          48 209 508 455 774 1895
          1913 1967 3029 3043 207 208
          222 457 779 1917 1888 3032
          3030 1962 208 50 222 457
          775 824 1917 3030 1968 1962
          5 52 517 334 543 1918
          1919 1369 3044 3045 215 5
          517 334 789 1919 1920 1946
          1369 3045 52 53 517 24
          544 1921 1918 2376 2374 3006
          53 54 452 194 545 1922
          1923 2379 2377 2982 216 53
          452 517 792 1923 1924 1950
          1921 3046 54 55 453 193
          546 1925 1926 2382 2380 3012
          217 54 453 452 794 1926
          1927 1951 1922 3047 55 56
          454 192 547 1928 1929 2385
          2383 2978 218 55 454 453
          796 1929 1930 1952 1925 3048
          57 219 191 455 799 1933
          1931 1954 1955 2975 219 56
          191 454 798 1932 1933 1953
          1928 2979 58 220 190 456
          801 1936 1934 1957 1958 2972
          220 57 190 455 800 1935
          1936 1956 1954 2976 59 221
          189 457 803 1939 1937 1960
          1961 2969 221 58 189 457
          802 1938 1939 1961 3049 2969
          59 60 458 30 551 1940
          1941 2391 2389 3050 222 59
          458 457 804 1941 1942 1962
          1960 3051 4 223 504 458
          807 1945 1943 3052 1963 3053
          223 60 504 458 806 1944
          1945 1963 1940 3053 216 44
          497 509 810 1879 1947 1948
          1880 3025 216 45 509 452
          812 1882 1948 1924 1966 3027
          223 4 233 458 807 920
          1949 1963 3052 3054 216 215
          517 497 827 1920 1950 1947
          1965 3055 58 221 456 457
          802 1959 1957 3049 1961 3056
          48 219 455 508 817 1955
          1967 1913 3028 3043 7 63
          498 236 557 1970 1971 921
          3057 2044 63 64 498 31
          558 1973 1970 2102 2103 3058
          64 65 507 205 559 1975
          1976 2957 2955 2988 225 64
          507 498 840 1976 1977 2000
          1973 3059 65 66 480 204
          560 1978 1979 2108 2109 3000
          226 65 480 507 842 1979
          1980 2001 1975 3060 66 67
          481 203 561 1981 1982 2111
          2112 2997 227 66 481 480
          844 1982 1983 2002 1978 3061
          67 68 482 202 562 1984
          1985 2114 2115 2994 228 67
          482 481 846 1985 1986 2003
          1981 3062 68 69 459 201
          563 1987 1988 2117 2118 3063
          229 68 459 482 848 1988
          1989 2004 1984 3064 70 230
          200 459 851 1992 1990 3065
          2005 3016 230 69 200 459
          850 1991 1992 2005 1987 3016
          70 71 461 25 565 1993
          1994 2121 2122 3066 231 70
          461 460 852 1994 1995 2008
          2006 3067 71 6 334 471
          566 1366 1996 2124 2125 2607
          232 71 334 461 854 1996
          1997 2009 1993 3068 226 36
          516 508 862 1868 1998 2012
          1869 3024 224 72 498 233
          857 1972 1974 2010 888 2018
          225 224 498 207 876 1974
          2000 1893 1864 3069 226 225
          507 516 877 1977 2001 1998
          2011 3070 227 226 480 508
          878 1980 2002 1999 2012 3071
          228 227 481 508 879 1983
          2003 2013 1999 3072 229 228
          482 212 880 1986 2004 1873
          1897 3037 230 70 460 459
          851 2006 2007 2005 3065 3073
          231 230 460 509 882 2007
          2008 2015 2014 3074 232 231
          461 206 883 1995 2009 2016
          1875 3075 74 234 499 261
          891 2021 2019 1000 2187 2176
          75 234 251 494 892 2022
          1001 2046 2047 3076 235 75
          475 251 893 2024 2025 3077
          1001 2101 76 237 491 358
          896 2028 2026 1429 3078 2662
          77 238 510 359 898 2031
          2029 1432 2032 2693 239 12
          115 493 906 624 2035 2054
          2055 2492 12 241 314 493
          909 2036 1258 2055 2056 2493
          241 81 314 506 908 1298
          2036 2059 2060 3079 81 242
          314 506 911 2037 1298 2060
          2061 3079 242 82 314 477
          910 1299 2037 2062 2063 2555
          244 83 305 505 914 1200
          2039 2042 2040 2447 245 4
          304 504 917 1199 2043 2067
          1943 2392 233 236 498 458
          922 2044 2018 3054 3080 3081
          238 8 499 87 899 2020
          2045 2664 592 2132 75 235
          494 251 893 2048 2046 1001
          3077 3076 235 234 494 479
          924 2047 2048 2072 2073 3082
          7 236 475 63 921 2049
          2023 557 3057 2100 239 9
          491 104 901 2027 2050 2243
          611 2661 237 76 510 358
          896 2030 2051 3078 1429 2663
          238 237 510 496 927 2051
          2031 2077 2078 3083 239 240
          277 469 928 2052 2033 3085
          3084 2273 239 241 493 491
          930 2056 2054 2050 2076 3086
          240 239 278 469 928 2057
          2058 3084 3085 3087 242 243
          477 483 932 2064 2062 2081
          2082 3088 243 82 477 324
          913 2063 2064 2544 1300 2556
          243 244 135 305 933 2065
          2038 3089 2039 1204 244 246
          505 483 935 2066 2042 2084
          2085 3090 246 84 505 304
          934 2041 2066 2069 1202 2393
          245 236 504 475 937 2068
          2067 2075 2049 3091 246 245
          304 476 938 2043 2069 2086
          2087 3092 233 4 504 458
          920 1943 2070 3054 3052 3053
          236 233 504 458 922 2070
          2068 3080 3054 3053 234 247
          499 479 940 2071 2021 2073
          2074 3093 247 238 499 496
          939 2045 2071 2079 2077 3094
          237 241 491 506 943 2076
          2028 2091 2059 3095 249 242
          506 477 945 2061 2080 2093
          2062 3096 242 250 483 477
          948 2083 2081 2062 2094 3088
          244 243 483 305 933 2082
          2084 2039 3089 3097 250 246
          483 478 950 2085 2083 2095
          2096 3098 246 248 476 478
          952 2088 2086 2096 2097 3099
          248 245 476 475 951 2087
          2088 2090 2075 3100 235 248
          479 475 954 2089 2072 2025
          2090 3101 248 247 479 478
          953 2074 2089 2097 2098 3102
          237 249 506 491 955 2080
          2091 2028 3103 3095 249 237
          496 491 955 2078 2092 3103
          2028 3104 249 250 477 483
          957 2094 2093 3105 2083 3088
          250 247 478 496 959 2098
          2095 2099 2079 3106 250 249
          496 433 957 2092 2099 3108
          3107 2942 251 63 475 198
          960 2100 2101 2158 2159 2920
          63 252 31 198 963 2104
          2102 2159 2160 731 252 64
          31 439 962 2103 2104 2107
          2105 1789 65 64 439 205
          559 2105 2106 2955 2957 1788
          65 253 204 438 966 2110
          2108 2956 2192 1786 66 254
          203 437 968 2113 2111 2954
          2963 1784 67 255 202 436
          970 2116 2114 2953 2961 1782
          255 68 202 435 969 2115
          2116 2164 2165 1781 68 256
          201 435 972 2119 2117 2165
          2166 1780 256 69 201 435
          971 2118 2119 2166 2960 1780
          69 257 200 434 974 2120
          1991 2168 2169 1778 257 70
          200 434 973 1990 2120 2169
          2170 1778 70 258 25 166
          976 2123 2121 2952 2172 689
          258 71 25 166 975 2122
          2123 2172 2173 689 71 259
          471 25 978 2126 2124 2122
          3109 2791 259 6 471 343
          977 2125 2126 2127 1358 2606
          259 85 343 484 979 1359
          2127 2175 2128 2608 260 86
          484 344 980 2129 2130 2131
          1361 2595 261 87 29 499
          984 2134 2135 2176 2132 2913
          262 88 186 29 986 2137
          2138 2177 2133 715 90 263
          185 444 989 2141 2139 2179
          2180 1801 263 89 185 186
          988 2140 2141 2178 2136 714
          91 264 184 183 991 2144
          2142 2146 2182 712 264 90
          184 444 990 2143 2144 2181
          2179 1802 92 265 183 182
          993 2147 2145 2149 2183 711
          93 266 182 181 995 2150
          2148 2152 2184 710 268 94
          26 181 1019 2155 2156 2185
          2151 709 260 95 344 503
          999 2157 2131 3111 3110 2623
          251 252 198 199 1003 2160
          2158 2188 2189 732 253 65
          439 205 966 2106 2161 2964
          2955 1788 253 254 204 438
          1005 2162 2110 2192 2193 1786
          254 66 204 437 968 2109
          2162 2963 2954 1785 254 255
          203 437 1006 2163 2113 2963
          2962 1784 255 67 203 436
          970 2112 2163 2961 2953 1783
          255 256 435 436 1007 2166
          2164 2961 2965 1809 69 256
          434 435 971 2167 2168 2960
          2166 1808 256 257 434 442
          1008 2169 2167 2199 2201 1821
          257 258 434 441 1009 2171
          2169 2203 2204 1820 258 70
          434 166 976 2170 2171 2172
          2952 1807 258 259 166 484
          1010 2174 2172 2206 2175 2796
          259 71 166 25 978 2173
          2174 3109 2122 689 262 261
          29 199 1012 2135 2177 2207
          2190 733 263 262 186 445
          1013 2138 2178 2208 2209 1804
          265 264 183 443 1015 2182
          2147 2212 2197 1800 266 265
          182 442 1016 2183 2150 2202
          2200 1798 267 266 181 441
          1017 2184 2153 2205 2213 1794
          268 267 181 441 1018 2153
          2185 2214 2205 1794 95 260
          26 503 999 2186 2154 3110
          3111 2794 260 268 26 165
          1020 2156 2186 2215 2216 687
          261 251 234 494 1021 2022
          2187 3112 3076 2047 251 261
          199 494 1021 2190 2188 3076
          3112 2923 252 262 439 440
          1024 2191 2107 2958 2959 1813
          262 253 439 440 1023 2161
          2191 2959 2966 1813 253 263
          438 445 1026 2194 2192 2210
          2208 1829 263 254 438 444
          1025 2193 2194 2180 2211 1827
          255 254 443 437 1006 2195
          2196 2962 2963 1825 254 264
          443 437 1028 2197 2195 2963
          2968 1825 256 255 442 436
          1007 2198 2199 2965 2961 1823
          255 265 442 436 1030 2200
          2198 2961 2967 1823 266 257
          442 441 1031 2201 2202 2213
          2203 1814 258 260 484 165
          1035 2130 2206 2217 2215 2797
          262 252 199 440 1024 2189
          2207 2959 2958 1792 253 262
          445 440 1023 2209 2210 2966
          2959 1819 264 254 444 437
          1028 2211 2181 2968 2963 1826
          265 255 443 436 1030 2196
          2212 2967 2961 1824 268 258
          441 165 1036 2204 2214 2216
          2217 1805 15 96 338 492
          602 2218 1351 2599 2643 2598
          96 97 462 23 603 2219
          2220 2645 2646 2757 269 96
          462 500 1038 2220 2221 2254
          3113 3114 97 98 163 403
          604 2222 2223 2648 2649 1633
          98 270 163 463 1041 2224
          2222 2257 2258 2771 270 97
          163 463 1040 2223 2224 2258
          3115 2771 99 271 162 464
          1043 2227 2225 2260 2261 2768
          271 98 162 464 1042 2226
          2227 2261 3116 2768 100 272
          161 465 1045 2230 2228 2263
          2264 2765 272 99 161 465
          1044 2229 2230 2264 3117 2765
          101 273 160 466 1047 2233
          2231 2266 2267 2762 273 100
          160 466 1046 2232 2233 2267
          3118 2762 101 102 467 159
          608 2234 2235 2654 2655 3119
          274 101 467 466 1048 2235
          2236 2268 2266 3120 103 275
          158 467 1051 2239 2237 3121
          2269 2780 275 102 158 467
          1050 2238 2239 2269 2234 2780
          103 104 469 20 610 2240
          2241 2658 2659 3122 276 103
          469 468 1052 2241 2242 2272
          2270 3123 277 104 239 469
          1054 2243 2033 2273 2240 3085
          105 114 295 500 1057 1153
          2244 2274 2252 2366 108 275
          288 467 1062 2246 1138 2277
          2269 2354 275 107 288 468
          1061 1139 2246 2271 2276 3124
          109 274 289 466 1064 2247
          1140 2278 2268 2356 274 108
          289 467 1063 1141 2247 2236
          2277 2355 110 273 290 513
          1066 2248 1142 2358 3125 2350
          273 109 290 466 1065 1143
          2248 2267 2278 2357 111 272
          291 514 1068 2249 1144 2360
          3126 2349 272 110 291 465
          1067 1145 2249 2264 2279 3127
          112 271 292 463 1070 2250
          1146 2281 2259 2362 271 111
          292 464 1069 1147 2250 2261
          2280 3128 113 270 293 462
          1072 2251 1148 2282 2256 2364
          270 112 293 463 1071 1149
          2251 2258 2281 2363 269 113
          500 462 1073 2253 2254 2221
          2282 3114 96 269 338 500
          1038 2255 2218 3113 2254 2601
          269 105 338 500 1056 1352
          2255 2254 2274 2601 97 270
          462 463 1040 2256 2219 3115
          2258 3129 98 271 463 464
          1042 2259 2257 3116 2261 3130
          99 272 464 465 1044 2262
          2260 3117 2264 3131 100 273
          465 466 1046 2265 2263 3118
          2267 3132 275 103 468 467
          1051 2270 2271 2269 3121 3133
          277 276 469 287 1083 2242
          2273 2275 2245 3134 106 277
          240 287 1084 2052 2034 1136
          2275 2352 276 107 468 288
          1060 2276 2272 2353 1139 3124
          273 110 465 513 1066 2279
          2265 3125 2358 3135 272 111
          464 514 1068 2280 2262 3126
          2360 3136 116 278 21 468
          1087 2285 2283 2326 2327 2735
          278 115 21 469 1086 2284
          2285 3087 3137 3138 116 117
          485 156 626 2286 2287 2754
          2855 2751 279 116 485 468
          1088 2287 2288 2328 2326 3139
          118 280 155 486 1091 2291
          2289 2293 2330 2748 280 117
          155 485 1090 2290 2291 2329
          2286 2752 118 119 486 154
          628 2292 2293 2501 2499 2749
          119 281 486 487 1093 2294
          2292 2296 2331 3140 119 120
          487 153 629 2295 2296 2504
          2502 2746 120 282 487 488
          1095 2297 2295 2299 2332 3141
          120 121 488 152 630 2298
          2299 2507 2505 2743 121 283
          488 511 1097 2300 2298 2302
          2333 3142 121 122 511 151
          631 2301 2302 2510 2508 2738
          122 123 470 22 632 2304
          2305 2513 2511 3143 285 122
          470 511 1100 2305 2306 2334
          2301 3144 286 123 338 470
          1102 2307 2308 2335 2304 3145
          285 124 294 500 1107 1157
          2310 2337 2338 2347 126 284
          293 518 1110 2311 1158 2313
          2341 2368 127 283 518 514
          1112 2314 2312 2316 2342 3146
          128 282 514 513 1114 2317
          2315 2319 2343 3147 129 281
          513 512 1116 2320 2318 2322
          2344 3148 279 130 288 512
          1119 1169 2324 2345 2321 2370
          132 278 287 240 1122 2325
          1170 2053 2058 2352 115 278
          239 469 1086 2057 2035 3137
          3087 3085 279 278 468 288
          1124 2327 2328 2324 2346 3124
          280 279 485 512 1125 2288
          2329 2323 2345 3149 281 280
          486 512 1126 2330 2294 2344
          2323 3150 282 281 487 513
          1127 2331 2297 2343 2320 3151
          283 282 488 514 1128 2332
          2300 2342 2317 3152 284 283
          511 518 1129 2333 2303 2341
          2314 3153 285 284 511 293
          1130 2303 2334 2340 2311 3154
          286 285 470 500 1131 2306
          2335 2339 2337 3155 124 286
          339 500 1132 2336 2309 2338
          2339 2602 113 294 500 462
          1151 2347 2253 2282 2365 3114
          292 127 518 514 1160 2312
          2348 2361 2316 3146 291 128
          514 513 1162 2315 2349 2359
          2319 3147 290 129 513 512
          1164 2318 2350 2369 2322 3148
          287 288 276 468 1172 2353
          2245 3156 3124 2272 288 289
          467 512 1173 2355 2354 2370
          2351 3157 289 290 466 512
          1174 2357 2356 2351 2369 3158
          291 110 513 465 1145 2358
          2359 3127 2279 3135 292 111
          514 464 1147 2360 2361 3128
          2280 3136 292 293 463 518
          1177 2363 2362 2348 2368 3159
          293 294 462 511 1178 2365
          2364 3154 3160 3161 295 124
          339 500 1180 2309 2367 2366
          2338 2602 294 293 285 511
          1178 2340 2310 3160 3154 2334
          288 287 278 468 1172 2325
          2346 3124 3156 2327 296 52
          489 24 1182 2371 2372 2375
          2376 2787 52 5 489 334
          543 2373 2371 3044 1369 2610
          296 53 24 171 1183 2374
          2375 2426 2424 696 297 54
          194 414 1185 2377 2378 2429
          2427 1685 53 297 194 415
          1184 2378 2379 2877 2878 1686
          298 55 193 413 1187 2380
          2381 2432 2430 1683 54 298
          193 414 1186 2381 2382 2427
          2428 1684 299 56 192 412
          1189 2383 2384 2435 2433 1681
          55 299 192 413 1188 2384
          2385 2430 2431 1682 300 57
          191 411 1191 1931 2386 2438
          2436 1679 56 300 191 412
          1190 2386 1932 2433 2434 1680
          301 58 190 410 1193 1934
          2387 2441 2439 1677 57 301
          190 411 1192 2387 1935 2436
          2437 1678 302 59 189 410
          1195 1937 2388 2440 2442 1676
          58 302 189 410 1194 2388
          1938 2439 2440 1676 303 60
          30 196 1197 2389 2390 2446
          2444 728 59 303 30 196
          1196 2390 2391 2880 2446 728
          60 304 504 476 1198 2392
          1944 3162 3092 3163 135 305
          28 483 1204 2395 2396 3164
          3097 2890 136 306 180 28
          1206 2398 2399 2394 2448 708
          137 307 179 180 1208 2401
          2402 2397 2449 707 138 308
          178 179 1210 2404 2405 2400
          2450 706 139 309 177 178
          1212 2407 2408 2403 2451 705
          140 310 176 177 1214 2410
          2411 2406 2452 704 141 311
          175 176 1216 2413 2414 2409
          2453 703 142 312 27 175
          1218 2416 2417 2412 2454 702
          143 313 473 27 1220 2419
          2420 2415 2455 2814 144 296
          489 502 1222 2372 2421 2458
          2456 3165 313 144 332 502
          1224 1335 2422 2457 2458 2612
          313 145 473 335 1223 2423
          2419 2597 1339 2588 297 53
          171 415 1184 2424 2425 2878
          2877 1688 298 299 413 417
          1227 2431 2432 2463 2461 1725
          299 300 412 418 1228 2434
          2435 2466 2464 1723 300 301
          411 419 1229 2437 2438 2469
          2467 1721 301 302 410 420
          1230 2440 2441 2472 2470 1719
          303 59 410 196 1196 2442
          2443 2446 2880 1706 302 303
          410 196 1231 2443 2440 2882
          2446 1706 304 60 196 476
          1198 2444 2445 3092 3162 2896
          303 304 196 505 1232 2445
          2446 3166 2393 2895 304 305
          505 195 1233 2447 2393 2476
          2477 2893 305 306 28 195
          1234 2448 2395 2477 2479 726
          306 307 180 420 1235 2449
          2398 2480 2471 1701 307 308
          179 419 1236 2450 2401 2481
          2468 1699 308 309 178 418
          1237 2451 2404 2482 2465 1697
          309 310 177 417 1238 2452
          2407 2483 2462 1695 310 311
          176 416 1239 2453 2410 2486
          2484 1693 311 312 175 416
          1240 2454 2413 2484 2879 1692
          312 313 27 172 1241 2455
          2416 2487 2490 698 313 296
          502 172 1242 2456 2457 2490
          2491 2821 312 297 171 172
          1244 2425 2459 2487 2488 697
          296 312 171 172 1243 2459
          2426 2491 2487 697 311 298
          414 416 1246 2428 2460 2484
          2485 1727 297 311 414 416
          1245 2460 2429 2881 2484 1727
          298 310 417 414 1247 2462
          2463 2428 2883 1726 299 309
          418 417 1249 2465 2466 2461
          2483 1714 300 308 419 418
          1251 2468 2469 2464 2482 1715
          301 307 420 419 1253 2471
          2472 2467 2481 1716 306 303
          421 195 1256 2473 2474 2479
          2478 1704 303 302 421 196
          1231 2475 2473 2446 2882 1705
          302 306 421 420 1255 2474
          2475 2470 2480 1717 304 303
          195 505 1232 2478 2476 2393
          3166 2893 310 298 416 414
          1247 2485 2486 2883 2428 1727
          312 311 172 416 1240 2489
          2487 2879 2484 1690 311 297
          172 416 1245 2488 2489 2484
          2881 1690 314 115 493 506
          1259 2492 2493 3079 3167 3168
          315 116 21 391 1261 2283
          2494 2496 2497 1581 115 315
          21 173 1260 2494 2284 2527
          2528 699 117 116 391 156
          626 2497 2495 2855 2754 1580
          117 316 155 390 1263 2498
          2290 2856 2563 1578 118 317
          154 389 1265 2500 2501 2854
          2864 1576 119 318 153 388
          1267 2503 2504 2853 2863 1574
          319 121 152 387 1270 2505
          2506 2536 2534 1572 120 319
          152 387 1269 2506 2507 2852
          2536 1572 320 122 151 386
          1272 2508 2509 2539 2537 1570
          121 320 151 386 1271 2509
          2510 2851 2539 1570 321 123
          22 170 1274 2511 2512 2542
          2540 695 122 321 22 170
          1273 2512 2513 2859 2542 695
          123 322 337 501 1275 2514
          2515 3170 3169 2636 146 323
          473 336 1277 2516 2517 1340
          2543 2589 324 135 28 483
          1281 2396 2519 3171 3164 2890
          325 136 180 28 1285 2399
          2520 2545 2394 708 326 137
          179 180 1287 2402 2521 2546
          2397 707 138 326 179 396
          1286 2521 2400 2549 2547 1593
          327 138 178 396 1289 2405
          2522 2548 2549 1594 139 327
          178 177 1288 2522 2403 2408
          2550 705 140 328 177 176
          1290 2523 2406 2411 2551 704
          141 329 176 175 1292 2524
          2409 2414 2552 703 331 142
          27 175 1316 2417 2526 2553
          2412 702 323 143 473 27
          1296 2420 2516 2554 2415 2814
          115 314 173 506 1259 2529
          2527 3167 3079 2901 314 315
          173 174 1301 2528 2529 2559
          2557 700 316 117 391 156
          1263 2495 2530 2865 2855 1580
          317 118 155 389 1265 2289
          2531 2864 2854 1577 316 317
          155 390 1303 2531 2498 2563
          2561 1578 318 119 154 388
          1267 2499 2532 2863 2853 1575
          317 318 154 389 1304 2532
          2500 2864 2862 1576 319 120
          153 387 1269 2502 2533 2536
          2852 1573 318 319 153 388
          1305 2533 2503 2863 2861 1574
          320 121 387 152 1271 2534
          2535 2860 2505 1572 321 122
          386 170 1273 2537 2538 2542
          2859 1599 322 123 170 501
          1275 2540 2541 3169 3170 2819
          321 322 170 169 1308 2541
          2542 2574 2572 694 322 323
          336 490 1309 2543 2518 3173
          3172 2618 135 324 243 483
          1281 2544 2038 3164 3171 2082
          325 324 28 174 1310 2519
          2545 2575 2558 701 326 325
          180 397 1311 2520 2546 2578
          2576 1596 328 327 177 395
          1313 2550 2523 2580 2565 1592
          329 328 176 394 1314 2551
          2524 2581 2568 1590 330 329
          175 393 1315 2552 2525 2584
          2582 1586 331 330 175 169
          1317 2525 2553 2586 2585 1587
          323 331 27 169 1318 2526
          2554 2573 2586 693 324 314
          477 174 1319 2555 2556 2558
          2559 2904 325 316 391 392
          1322 2530 2560 2858 2866 1605
          315 325 391 392 1321 2560
          2496 2857 2858 1605 326 317
          390 396 1324 2561 2562 2547
          2579 1619 316 326 390 397
          1323 2562 2563 2577 2578 1621
          318 317 395 389 1304 2566
          2564 2862 2864 1617 317 327
          395 389 1325 2565 2566 2864
          2868 1617 319 318 394 388
          1305 2569 2567 2861 2863 1615
          318 328 394 388 1327 2568
          2569 2863 2867 1615 329 320
          387 393 1330 2535 2570 2582
          2583 1613 319 329 387 394
          1329 2570 2536 2567 2581 1614
          330 321 386 169 1332 2538
          2571 2585 2574 1598 320 330
          386 393 1331 2571 2539 2583
          2584 1612 323 322 169 490
          1309 2572 2573 3172 3173 2817
          325 315 174 392 1321 2557
          2575 2858 2857 1584 316 325
          397 392 1322 2576 2577 2866
          2858 1611 327 317 396 389
          1325 2579 2548 2868 2864 1618
          328 318 395 388 1327 2564
          2580 2867 2863 1616 332 144
          489 502 1335 2421 2587 2612
          2458 3165 15 342 472 492
          1379 2594 2592 2599 2600 3174
          333 332 489 502 1371 2587
          2596 2611 2612 3165 332 335
          313 502 1373 2597 2422 2612
          3175 2457 335 336 473 490
          1374 2589 2588 2617 2618 3176
          336 337 322 501 1375 2514
          2518 3177 2636 3169 337 338
          123 492 1376 2307 2515 2621
          2598 3178 338 339 286 470
          1377 2336 2308 3145 3179 2335
          339 105 295 500 1378 2244
          2367 2602 2274 2366 339 338
          500 470 1377 2601 2602 3179
          3145 3155 340 344 95 503
          1381 2157 2603 2622 2623 3110
          149 341 350 472 1356 2604
          1452 2593 2605 2673 341 340
          350 367 1382 2591 2604 3180
          2590 1471 344 343 484 474
          1385 2608 2595 2630 2631 3181
          334 345 232 461 1386 2017
          1997 3068 3182 2009 32 345
          215 497 1367 2609 1964 1890
          3023 1965 334 333 489 471
          1388 2596 2610 2607 2629 3183
          345 334 215 517 1386 1946
          2609 3184 3045 1920 333 346
          502 489 1390 2613 2611 2596
          3185 3165 346 332 502 515
          1389 2612 2613 2616 2614 3186
          335 332 515 502 1373 2614
          2615 3175 2612 3186 335 347
          490 473 1393 2619 2617 2588
          3187 3176 337 336 490 501
          1375 2618 2620 2636 3177 3188
          337 342 492 501 1395 2600
          2621 2636 2637 3189 340 349
          503 495 1397 2624 2622 2626
          2627 3190 349 344 503 474
          1396 2623 2624 2632 2630 3191
          340 341 495 472 1382 2625
          2626 3192 2605 3193 342 348
          472 501 1400 2628 2594 2637
          2638 3194 348 341 472 495
          1399 2605 2628 2639 2625 3193
          346 333 471 515 1390 2629
          2633 2616 3195 3196 343 346
          471 474 1403 2633 2606 2631
          2640 3197 347 335 515 473
          1393 2615 2634 3187 2588 3198
          347 348 490 495 1406 2635
          2619 2642 2639 3199 348 337
          490 501 1405 2620 2635 2638
          2636 3188 349 346 474 515
          1408 2640 2632 2641 2616 3200
          349 347 515 495 1409 2634
          2641 2627 2642 3201 15 350
          492 472 1411 2644 2599 2592
          2673 3174 350 96 492 472
          1410 2643 2644 2673 3202 3174
          96 351 23 167 1413 2647
          2645 2675 2676 690 351 97
          23 403 1412 2646 2647 2650
          2648 1634 98 352 162 402
          1416 2651 2226 2870 2872 1631
          352 99 162 401 1415 2225
          2651 2678 2679 1630 99 353
          161 401 1418 2652 2229 2679
          2680 1629 353 100 161 400
          1417 2228 2652 2681 2682 1628
          100 354 160 400 1420 2653
          2232 2682 2683 1627 354 101
          160 399 1419 2231 2653 2684
          2685 1626 101 355 159 399
          1422 2656 2654 2685 2686 1625
          355 102 159 398 1421 2655
          2656 2687 2688 1624 102 356
          158 398 1424 2657 2238 2688
          2689 1623 356 103 158 398
          1423 2237 2657 2689 2690 1623
          103 357 20 188 1426 2660
          2658 2869 2871 718 357 104
          20 188 1425 2659 2660 2871
          3203 718 359 87 238 499
          1433 2664 2032 3204 2132 2045
          87 359 29 499 1433 2665
          2134 2132 3204 2913 88 360
          186 29 1436 2666 2137 2133
          2694 715 89 361 185 186
          1438 2667 2140 2136 2695 714
          90 362 184 185 1440 2668
          2143 2139 2696 713 91 363
          183 184 1442 2669 2146 2142
          2697 712 92 364 182 183
          1444 2670 2149 2145 2698 711
          93 365 181 182 1446 2671
          2152 2148 2699 710 94 366
          26 181 1448 2672 2155 2151
          2700 709 95 367 340 503
          1450 2590 2603 3110 3205 2622
          96 350 167 472 1410 2674
          2675 3202 2673 2800 350 351
          167 168 1454 2676 2674 2702
          2703 691 351 352 403 404
          1455 2677 2650 2705 2706 1659
          352 98 403 163 1416 2649
          2677 2873 2222 1633 352 353
          401 405 1456 2680 2678 2708
          2709 1672 353 354 400 406
          1457 2683 2681 2711 2712 1670
          354 355 399 407 1458 2686
          2684 2714 2715 1668 355 356
          398 408 1459 2689 2687 2717
          2718 1666 356 357 398 188
          1460 2691 2689 2875 2871 1653
          357 103 398 188 1426 2690
          2691 2871 2869 1653 104 357
          491 188 1425 2692 2661 3203
          2871 2919 357 358 491 188
          1461 2662 2692 2871 3206 2919
          358 359 510 187 1462 2693
          2663 2724 2725 2916 359 360
          29 187 1463 2694 2665 2725
          2726 716 360 361 186 408
          1464 2695 2666 2727 2719 1648
          361 362 185 407 1465 2696
          2667 2728 2716 1646 362 363
          184 406 1466 2697 2668 2729
          2713 1644 363 364 183 405
          1467 2698 2669 2730 2710 1642
          364 365 182 404 1468 2699
          2670 2731 2707 1640 365 366
          181 404 1469 2700 2671 2707
          2874 1639 366 367 26 168
          1470 2701 2672 2733 2704 692
          367 95 26 503 1450 2154
          2701 3205 3110 2794 350 367
          168 472 1471 2704 2702 2673
          3207 2803 351 365 404 168
          1474 2707 2705 2703 2732 1637
          352 364 405 402 1476 2710
          2708 2872 2876 1673 353 363
          406 405 1478 2713 2711 2709
          2730 1661 354 362 407 406
          1480 2716 2714 2712 2729 1662
          355 361 408 407 1482 2719
          2717 2715 2728 1663 357 356
          409 188 1460 2720 2721 2871
          2875 1652 356 360 409 408
          1484 2722 2720 2718 2727 1664
          360 357 409 187 1483 2721
          2722 2726 2723 1651 358 357
          187 510 1461 2723 2724 2663
          3208 2916 364 352 404 402
          1476 2706 2731 2876 2872 1674
          366 365 168 404 1469 2732
          2733 2874 2707 1637 21 150
          468 469 667 2734 2735 3138
          3209 3123 368 21 468 116
          1487 2735 2736 2755 2283 2326
          150 20 468 469 668 2737
          2734 3209 3122 3123 22 151
          511 122 669 2738 2739 2513
          2508 2301 151 152 511 121
          670 2741 2738 2510 2505 2302
          152 369 511 488 1492 2740
          2741 2743 2774 3142 152 153
          488 120 671 2742 2743 2507
          2502 2299 153 370 488 487
          1494 2744 2742 2746 2775 3141
          153 154 487 119 672 2745
          2746 2504 2499 2296 154 371
          487 486 1496 2747 2745 2749
          2776 3140 154 155 486 118
          673 2748 2749 2501 2289 2293
          155 156 485 117 674 2751
          2752 2290 2855 2286 373 155
          485 486 1518 2752 2753 2777
          2748 3210 368 156 116 485
          1500 2754 2755 2778 2751 2287
          23 157 462 492 676 2756
          2757 2807 2808 3211 163 23
          462 97 684 2757 2758 2223
          2646 2219 157 22 511 470
          677 2739 2759 3212 3143 3144
          369 157 511 462 1502 2759
          2740 2779 2756 3161 20 158
          468 103 678 2760 2737 2658
          2237 2270 158 368 468 467
          1503 2736 2760 2780 2781 3133
          159 373 102 467 1505 2761
          2655 3119 2782 2234 373 158
          102 467 1504 2238 2761 2782
          2780 2234 159 160 466 101
          680 2762 2763 2654 2231 2266
          160 372 466 465 1507 2764
          2762 2766 2784 3132 160 161
          465 100 681 2765 2766 2232
          2228 2263 161 371 465 464
          1509 2767 2765 2769 2785 3131
          161 162 464 99 682 2768
          2769 2229 2225 2260 162 370
          464 463 1511 2770 2768 2772
          2786 3130 162 163 463 98
          683 2771 2772 2226 2222 2257
          163 369 463 462 1513 2773
          2771 2758 2779 3129 370 369
          488 463 1514 2774 2744 2786
          2773 3213 371 370 487 464
          1515 2775 2747 2785 2770 3214
          372 371 486 465 1516 2776
          2750 2784 2767 3215 373 372
          486 466 1517 2750 2777 2783
          2764 3216 368 373 485 467
          1519 2753 2778 2781 2782 3217
          373 159 466 467 1505 2763
          2783 2782 3119 3120 164 24
          489 517 685 2787 2788 3005
          3006 3218 374 164 489 471
          1520 2788 2789 2792 2790 3183
          25 164 471 461 686 2790
          2791 3066 3219 3220 26 165
          503 260 687 2793 2794 2186
          2215 3111 165 375 503 484
          1524 2795 2793 2797 2826 3221
          165 166 484 258 688 2796
          2797 2217 2172 2206 166 376
          484 471 1526 2798 2796 2799
          2827 3222 166 25 471 259
          689 2791 2799 2174 3109 2126
          23 167 472 96 690 2800
          2801 2645 2675 3202 377 23
          472 492 1528 2801 2802 2809
          2807 3174 167 168 472 350
          691 2803 2800 2674 2702 2673
          168 378 472 495 1531 2804
          2803 2828 2829 3193 168 26
          503 367 692 2794 2805 2704
          2701 3205 379 168 503 495
          1532 2805 2806 2830 2828 3190
          377 157 492 501 1534 2808
          2809 2812 2810 3189 22 157
          501 492 677 2810 2811 3223
          2808 3189 27 169 473 323
          693 2813 2814 2554 2573 2516
          169 380 473 490 1537 2815
          2813 2817 2831 3176 169 170
          490 322 694 2816 2817 2572
          2541 3173 170 381 490 501
          1539 2818 2816 2819 2832 3188
          170 22 501 123 695 2811
          2819 2540 2511 3170 24 171
          489 296 696 2820 2787 2375
          2426 2372 171 172 502 296
          697 2821 2822 2426 2491 2456
          382 171 502 489 1542 2822
          2823 2833 2820 3165 172 27
          473 313 698 2814 2824 2490
          2455 2419 383 172 473 502
          1544 2824 2825 2834 2821 3224
          375 379 503 495 1546 2806
          2795 2835 2830 3190 376 375
          484 474 1547 2826 2798 2837
          2838 3181 374 376 471 474
          1548 2827 2792 2840 2837 3197
          378 377 472 495 1549 2802
          2804 2829 2841 3193 380 383
          473 490 1551 2825 2815 2831
          2842 3176 382 374 489 502
          1554 2789 2833 2823 3225 3165
          383 382 502 515 1555 2823
          2834 2848 2845 3186 375 385
          495 474 1557 2836 2835 2838
          2849 3226 374 384 474 515
          1560 2839 2840 2846 2847 3200
          385 377 495 501 1561 2841
          2836 2844 2812 3227 385 383
          490 515 1563 2842 2843 2850
          2848 3228 381 385 490 501
          1565 2843 2818 2832 2844 3188
          374 382 515 502 1554 2845
          2846 3225 2823 3186 384 385
          474 515 1568 2849 2839 2847
          2850 3200 386 152 121 320
          1571 2505 2851 2539 2860 1271
          390 156 117 316 1579 2855
          2856 2563 2865 1263 402 163
          98 352 1632 2222 2870 2872
          2873 1416 188 187 357 510
          717 2723 2871 2918 2916 3208
          189 30 59 457 719 2391
          1937 2969 2970 1960 190 189
          58 456 720 1938 1934 2972
          2973 1957 191 190 57 455
          721 1935 1931 2975 2976 1954
          192 191 56 454 722 1932
          2383 2978 2979 1928 194 193
          54 452 724 2382 2377 2982
          2983 1922 196 195 303 505
          727 2478 2446 2895 2893 3166
          422 197 475 504 1729 2884
          2885 2888 2889 3091 197 31
          475 498 729 2886 2884 3229
          3058 3230 422 30 504 476
          1730 2887 2888 2897 2898 3163
          30 197 504 458 730 2889
          2887 3050 3231 3053 28 195
          483 305 726 2892 2890 2395
          2477 3097 195 423 483 505
          1731 2891 2892 2893 2926 3090
          196 425 505 476 1733 2894
          2895 2896 2927 3232 196 30
          476 60 728 2898 2896 2444
          2389 3162 426 21 506 493
          1737 2899 2900 2908 2909 3168
          21 173 506 115 699 2901
          2899 2284 2527 3167 427 173
          477 506 1739 2902 2903 2928
          2901 3096 173 174 477 314
          700 2904 2902 2529 2559 2555
          424 174 483 477 1741 2905
          2906 2929 2904 3088 174 28
          483 324 701 2890 2905 2558
          2519 3171 426 150 493 491
          1742 2907 2908 2911 2912 3086
          150 21 493 469 667 2909
          2907 3209 3138 3233 20 150
          491 469 668 2912 2910 3122
          3209 3234 29 187 499 359
          716 2915 2913 2665 2725 3204
          187 428 499 510 1744 2914
          2915 2916 2930 3235 188 430
          510 491 1746 2917 2918 2919
          2931 3236 188 20 491 104
          718 2910 2919 3203 2659 2661
          31 198 475 63 731 2920
          2886 2102 2159 2100 198 422
          475 494 1749 2885 2920 2921
          2932 3237 198 199 494 251
          732 2923 2921 2158 2188 3076
          199 431 494 499 1750 2922
          2923 2924 2933 3238 199 29
          499 261 733 2913 2924 2190
          2135 2176 425 423 505 478
          1754 2926 2894 2936 2934 3239
          430 428 510 496 1759 2930
          2917 2943 2941 3083 428 429
          499 496 1760 2925 2914 2941
          2944 3094 426 430 491 510
          1761 2931 2911 3240 2917 3236
          431 422 494 479 1762 2932
          2922 2948 2946 3082 429 431
          499 479 1763 2933 2925 2949
          2948 3093 425 432 478 476
          1764 2935 2936 2927 2938 3099
          433 424 483 477 1767 2906
          2937 2940 2929 3088 423 433
          483 478 1766 2937 2891 2934
          2950 3098 422 432 476 478
          1768 2938 2897 3241 2935 3099
          433 426 506 496 1770 2900
          2939 2942 2945 3242 427 433
          506 249 1769 2939 2928 3243
          3107 2080 433 427 477 249
          1769 2903 2940 3107 3243 2093
          433 429 496 479 1773 2944
          2942 2951 2949 3244 430 426
          496 510 1761 2945 2943 2917
          3240 3083 432 422 479 478
          1768 2946 2947 2935 3241 3102
          432 433 478 479 1776 2950
          2935 2947 2951 3102 200 25
          70 460 734 2121 1990 2990
          2991 2006 202 201 68 482
          736 2117 2115 2994 2995 1984
          203 202 67 481 737 2114
          2112 2997 2998 1981 204 203
          66 480 738 2111 2109 3000
          3001 1978 438 205 65 253
          1787 2955 2956 2192 2964 966
          205 204 65 507 739 2108
          2955 2988 3003 1975 31 205
          64 507 740 2957 2103 2987
          2988 1976 189 446 457 456
          1831 2971 2969 2973 2974 3056
          447 190 455 456 1833 2976
          2977 3009 2972 3245 448 191
          454 455 1835 2979 2980 3010
          2975 3246 193 449 55 453
          1838 2981 2380 3012 3013 1925
          449 192 55 453 1837 2385
          2981 3013 3247 1925 450 193
          452 453 1861 2983 2984 3014
          3012 3047 24 451 53 517
          1841 2985 2374 3006 3007 1921
          451 194 53 452 1840 2379
          2985 3015 2982 1923 31 197
          507 498 729 2986 2987 3058
          3229 3059 197 30 457 458
          730 2970 2989 3231 3050 3051
          446 197 457 507 1843 2989
          2971 3004 2986 3248 200 451
          460 459 1845 2992 2990 3016
          3017 3073 201 450 69 459
          1847 2993 2118 3063 3018 1987
          450 200 69 459 1846 1991
          2993 3018 3016 1987 448 202
          481 482 1850 2998 2999 3020
          2994 3062 204 447 480 507
          1853 3002 3000 3003 3022 3060
          447 203 480 481 1852 3001
          3002 3021 2997 3061 164 451
          517 460 1856 3007 3005 3008
          2992 3249 164 25 460 461
          686 2991 3008 3219 3066 3067
          447 446 456 507 1857 2974
          3009 3022 3004 3250 448 447
          455 481 1858 2977 3010 2999
          3021 3251 192 449 454 453
          1837 3011 2978 3247 3013 3048
          449 448 454 482 1859 2980
          3011 2996 3020 3252 450 449
          453 482 1860 3013 3014 3019
          2996 3042 451 450 452 459
          1862 2984 3015 3017 3018 3253
          450 201 482 459 1847 2995
          3019 3018 3063 3064 206 345
          497 461 1863 3023 1889 3075
          3182 3254 224 207 233 498
          1864 1891 2010 1974 3069 2018
          208 225 516 507 1865 2011
          1894 3255 1977 3070 209 516
          508 455 1867 3024 1895 3029
          3256 3043 228 211 508 481
          1872 1896 2013 2003 3257 3072
          212 229 459 482 1873 1989
          1898 3037 2004 3064 230 213
          459 509 1874 1899 2005 2014
          1881 3039 345 206 232 461
          1863 2016 2017 3182 3075 2009
          214 497 509 231 1878 3025
          1901 1903 3040 2015 213 509
          452 212 1881 3027 3026 784
          3038 3041 212 217 453 452
          1883 1927 1907 3041 1951 3047
          218 211 453 454 1884 1908
          1952 1930 1910 3048 219 210
          454 508 1885 1911 1953 3028
          1870 3035 220 209 455 516
          1886 3029 1956 3258 1867 3256
          209 220 456 516 1886 1958
          1914 1867 3258 3034 221 208
          456 457 1887 1915 1959 1961
          3030 3056 207 222 458 457
          1888 1942 3031 3032 1962 3051
          233 207 223 458 1891 1904
          1949 3054 3031 1963 207 225
          457 498 1893 3033 3032 3069
          2000 3259 225 208 457 507
          1865 3030 3033 1977 3255 3248
          208 516 456 457 1894 3034
          1915 3030 3260 3056 508 211
          454 481 1896 1910 3035 3072
          3257 3261 211 228 482 481
          1872 1986 3036 3257 2003 3062
          212 459 509 452 1898 3039
          3038 3041 3253 3027 231 206
          497 461 1875 1889 3040 1995
          3075 3254 212 453 482 459
          1907 3042 3037 1898 3262 3064
          453 211 482 454 1908 3036
          3042 3048 1910 3252 52 517
          334 489 1918 3045 3044 2371
          3218 2610 517 52 24 489
          1918 2376 3006 3218 2371 2787
          53 452 517 451 1923 3046
          1921 2985 3015 3007 452 216
          517 497 1924 1950 3046 3263
          1947 3055 453 54 193 452
          1926 2382 3012 3047 1922 2983
          454 55 192 453 1929 2385
          2978 3048 1925 3247 219 191
          455 454 1933 2975 1955 1953
          2979 3246 220 190 456 455
          1936 2972 1958 1956 2976 3245
          58 189 457 456 1938 2969
          3049 1957 2973 3056 60 458
          30 504 1940 3050 2389 1944
          3053 2887 458 59 30 457
          1941 2391 3050 3051 1960 2970
          497 216 509 452 1947 1948
          3025 3263 1924 3027 215 517
          497 345 1920 3055 1965 2609
          3184 3023 219 455 508 454
          1955 3043 3028 1953 3246 3035
          63 498 236 475 1970 2044
          3057 2100 3230 2049 64 498
          31 507 1973 3058 2103 1976
          3059 2987 498 63 31 475
          1970 2102 3058 3230 2100 2886
          507 225 498 457 1977 2000
          3059 3248 3033 3259 480 65
          204 507 1979 2108 3000 3060
          1975 3003 480 226 507 516
          1980 2001 3060 3264 1998 3070
          481 66 203 480 1982 2111
          2997 3061 1978 3001 481 227
          480 508 1983 2002 3061 3072
          1999 3071 482 67 202 481
          1985 2114 2994 3062 1981 2998
          459 68 201 482 1988 2117
          3063 3064 1984 2995 200 70
          459 460 1990 3065 3016 2990
          2006 3073 71 461 25 471
          1993 3066 2122 2124 3220 2791
          461 70 25 460 1994 2121
          3066 3067 2006 2991 461 231
          460 497 1995 2008 3067 3254
          3040 3265 334 71 471 461
          1996 2124 2607 3068 1993 3220
          516 226 508 480 1998 2012
          3024 3264 1980 3071 460 230
          459 509 2007 2005 3073 3074
          2014 3039 460 231 509 497
          2008 2015 3074 3265 3040 3025
          234 499 261 494 2021 2176
          2187 2047 3238 3112 475 235
          251 494 2025 3077 2101 3237
          2048 3076 237 491 358 510
          2028 2662 3078 2051 3236 2663
          238 510 359 499 2031 2693
          2032 2045 3235 3204 115 239
          493 469 2035 2054 2492 3137
          3085 3233 241 314 493 506
          2036 2493 2056 2059 3079 3168
          242 314 506 477 2037 3079
          2061 2062 2555 3096 305 244
          505 483 2039 2042 2447 3097
          2084 3090 304 245 504 476
          2043 2067 2392 3092 2087 3163
          236 498 458 504 2044 3081
          3080 2068 3266 3053 498 233
          458 207 2018 3054 3081 3069
          1891 3031 234 494 479 499
          2047 3082 2073 2021 3238 3093
          494 235 479 475 2048 2072
          3082 3237 2025 3101 491 239
          104 469 2050 2243 2661 3234
          3085 2240 237 510 496 491
          2051 3083 2078 2028 3236 3104
          510 238 496 499 2031 2077
          3083 3235 2045 3094 240 277
          469 287 2052 2273 3084 2352
          2275 3134 241 493 491 506
          2056 3086 2076 2059 3168 3095
          493 239 491 469 2054 2050
          3086 3233 3085 3234 278 240
          469 287 2058 3084 3087 2325
          2352 3134 243 477 483 324
          2064 3088 2082 2544 2556 3171
          135 243 305 483 2038 3089
          1204 3164 2082 3097 246 505
          483 478 2066 3090 2085 2096
          3239 3098 505 246 304 476
          2066 2069 2393 3232 2086 3092
          236 504 475 498 2068 3091
          2049 2044 3266 3230 504 245
          475 476 2067 2075 3091 3163
          2087 3100 247 499 479 496
          2071 3093 2074 2079 3094 3244
          506 249 477 427 2080 2093
          3096 2928 3243 2903 483 250
          478 433 2083 2095 3098 2937
          3108 2950 248 476 478 479
          2088 3099 2097 2089 3267 3102
          476 246 478 505 2086 2096
          3099 3232 2066 3239 476 248
          475 479 2088 2090 3100 3267
          2089 3101 247 479 478 496
          2074 3102 2098 2079 3244 3106
          249 506 491 426 2080 3095
          3103 3268 2900 2911 496 249
          491 426 2092 3103 3104 2945
          3268 2911 249 250 483 433
          957 2083 3105 3107 3108 2937
          477 249 483 433 2093 3105
          3088 2940 3107 2937 478 250
          496 433 2095 2099 3106 2950
          3108 2942 249 496 433 506
          2092 2942 3107 2080 3242 2939
          475 251 198 494 2101 2158
          2920 3237 3076 2921 471 259
          343 484 2126 2127 2606 3222
          2175 2608 484 260 344 503
          2130 2131 2595 3221 3111 2623
          259 166 484 471 2174 2796
          2175 2126 2799 3222 261 199
          494 499 2190 2923 3112 2176
          2924 3238 260 484 165 503
          2130 2797 2215 3111 3221 2793
          96 338 492 500 2218 2598
          2643 3113 2601 3269 462 96
          23 492 2220 2645 2757 3211
          2643 2807 96 462 500 492
          2220 3114 3113 2643 3211 3269
          97 163 463 462 2223 2771
          3115 2219 2758 3129 98 162
          464 463 2226 2768 3116 2257
          2772 3130 99 161 465 464
          2229 2765 3117 2260 2769 3131
          100 160 466 465 2232 2762
          3118 2263 2766 3132 467 101
          159 466 2235 2654 3119 3120
          2266 2763 467 274 466 512
          2236 2268 3120 3157 3270 3158
          158 103 467 468 2237 3121
          2780 2760 2270 3133 104 469
          20 491 2240 3122 2659 2661
          3234 2910 469 103 20 468
          2241 2658 3122 3123 2270 2737
          469 276 468 287 2242 2272
          3123 3134 2245 3156 275 288
          467 468 2246 2354 2269 2271
          3124 3133 274 289 466 512
          2247 2356 2268 3270 2351 3158
          289 274 467 512 2247 2236
          2355 2351 3270 3157 273 290
          513 466 2248 2350 3125 2267
          2357 3271 272 291 514 465
          2249 2349 3126 2264 3127 3272
          271 292 463 518 2250 2362
          2259 3273 2348 3159 292 271
          464 518 2250 2261 3128 2348
          3273 3274 270 293 462 463
          2251 2364 2256 2258 2363 3129
          271 463 464 518 2259 3130
          2261 3273 3159 3274 272 464
          465 514 2262 3131 2264 3126
          3136 3272 273 465 466 513
          2265 3132 2267 3125 3135 3271
          278 21 468 469 2285 2735
          2327 3087 3138 3123 115 21
          469 493 2284 3138 3137 2492
          2909 3233 116 485 468 368
          2287 3139 2326 2755 2778 2736
          485 279 468 288 2288 2328
          3139 3275 2324 3124 280 155
          486 485 2291 2748 2330 2329
          2752 3210 119 486 154 487
          2292 2749 2499 2296 3140 2745
          281 486 487 513 2294 3140
          2331 2320 3276 3151 120 487
          153 488 2295 2746 2502 2299
          3141 2742 282 487 488 514
          2297 3141 2332 2317 3277 3152
          121 488 152 511 2298 2743
          2505 2302 3142 2741 283 488
          511 518 2300 3142 2333 2314
          3278 3153 123 470 22 157
          2304 3143 2511 3279 3212 677
          470 122 22 511 2305 2513
          3143 3144 2301 2739 470 285
          511 500 2306 2334 3144 3155
          2337 3280 123 338 470 492
          2307 3145 2304 3178 2598 3281
          294 285 500 511 2310 2337
          2347 3160 2334 3280 284 293
          518 511 2311 2368 2341 2303
          3154 3153 283 518 514 488
          2314 3146 2342 2300 3278 3152
          282 514 513 487 2317 3147
          2343 2297 3277 3151 281 513
          512 486 2320 3148 2344 2294
          3276 3150 288 279 512 485
          2324 2345 2370 3275 2288 3149
          485 280 512 486 2329 2323
          3149 3210 2330 3150 470 286
          500 339 2335 2339 3155 3179
          2336 2602 294 500 462 511
          2347 3114 2365 3160 3280 3161
          518 292 514 464 2348 2361
          3146 3274 3128 3136 514 291
          513 465 2349 2359 3147 3272
          3127 3135 513 290 512 466
          2350 2369 3148 3271 2357 3158
          467 288 512 485 2354 2370
          3157 3217 3275 3149 293 463
          518 511 2363 3159 2368 3154
          3282 3153 462 293 511 463
          2364 3154 3161 3129 2363 3282
          287 278 468 469 2325 2327
          3156 3134 3087 3123 504 60
          476 30 1944 3162 3163 2887
          2389 2898 296 489 502 171
          2372 3165 2456 2426 2820 2822
          473 313 335 502 2419 2597
          2588 3224 2457 3175 196 304
          476 505 2445 3092 2896 2895
          2393 3232 305 505 195 483
          2447 2893 2477 3097 3090 2892
          502 313 172 473 2457 2490
          2821 3224 2419 2824 115 493
          506 21 2492 3168 3167 2284
          2909 2899 337 123 501 492
          2515 3170 2636 2621 3178 3189
          323 473 336 490 2516 2589
          2543 3172 3176 2618 314 173
          506 477 2529 2901 3079 2555
          2902 3096 170 322 501 490
          2541 3169 2819 2816 3173 3188
          336 322 490 501 2518 3173
          2618 3177 3169 3188 477 324
          174 483 2556 2558 2904 3088
          3171 2905 169 323 490 473
          2573 3172 2817 2813 2516 3176
          342 472 492 501 2594 3174
          2600 2637 3194 3189 338 500
          470 492 2601 3155 3145 2598
          3269 3281 341 350 472 367
          2604 2673 2605 3180 1471 3207
          341 340 367 168 1382 2590
          3180 3284 3283 2704 343 484
          474 471 2608 3181 2631 2606
          3222 3197 484 344 474 503
          2595 2630 3181 3221 2623 3191
          334 345 461 517 1386 3182
          3068 3045 3184 3285 333 489
          471 515 2596 3183 2629 3195
          3286 3196 489 334 471 517
          2610 2607 3183 3218 3045 3287
          333 346 489 515 1390 3185
          2596 3195 2616 3286 346 502
          489 515 2613 3165 3185 2616
          3186 3286 515 335 502 473
          2615 3175 3186 3198 2588 3224
          347 490 473 515 2619 3176
          3187 2634 3228 3198 349 503
          495 474 2624 3190 2627 2632
          3191 3226 503 340 495 168
          2622 2626 3190 2805 3283 2828
          340 341 472 168 1382 2605
          3192 3283 3284 2803 495 340
          472 168 2626 3192 3193 2828
          3283 2803 348 472 501 495
          2628 3194 2638 2639 3193 3227
          471 346 515 474 2633 2616
          3196 3197 2640 3200 348 490
          495 501 2635 3199 2639 2638
          3188 3227 490 347 495 385
          2619 2642 3199 2843 3288 2836
          474 349 515 495 2632 2641
          3200 3226 2627 3201 347 515
          495 385 2634 3201 2642 3288
          2850 2836 96 492 472 23
          2643 3174 3202 2645 2807 2801
          367 340 503 168 2590 2622
          3205 2704 3283 2805 357 358
          188 510 1461 3206 2871 3208
          2663 2918 358 491 188 510
          2662 2919 3206 2663 3236 2918
          359 510 187 499 2693 2916
          2725 3204 3235 2915 367 168
          472 341 2704 2803 3207 3180
          3284 2605 369 511 488 463
          2740 3142 2774 2773 3282 3213
          370 488 487 464 2744 3141
          2775 2770 3289 3214 371 487
          486 465 2747 3140 2776 2767
          3290 3215 485 373 486 466
          2753 2777 3210 3291 2783 3216
          157 462 492 470 2756 3211
          2808 3212 3292 3281 511 157
          470 462 2759 3212 3144 3161
          2756 3292 511 369 462 463
          2740 2779 3161 3282 2773 3129
          368 468 467 485 2736 3133
          2781 2778 3139 3217 372 466
          465 486 2764 3132 2784 2750
          3216 3215 371 465 464 487
          2767 3131 2785 2747 3290 3214
          370 464 463 488 2770 3130
          2786 2744 3289 3213 373 485
          467 466 2753 3217 2782 2783
          3291 3120 489 164 517 471
          2788 3005 3218 3183 2790 3287
          489 374 471 515 2789 2792
          3183 3286 2846 3196 164 471
          461 517 2790 3220 3219 3005
          3287 3285 375 503 484 474
          2795 3221 2826 2838 3191 3181
          376 484 471 474 2798 3222
          2827 2837 3181 3197 472 377
          492 501 2802 2809 3174 3194
          2812 3189 22 157 492 123
          677 2808 3223 2511 3279 3178
          501 22 492 123 2811 3223
          3189 3170 2511 3178 473 383
          502 515 2825 2834 3224 3198
          2848 3186 503 375 495 474
          2795 2835 3190 3191 2838 3226
          471 374 474 515 2792 2840
          3197 3196 2846 3200 377 472
          495 501 2802 3193 2841 2812
          3194 3227 383 473 490 515
          2825 3176 2842 2848 3198 3228
          374 489 502 515 2789 3165
          3225 2846 3286 3186 385 495
          474 515 2836 3226 2849 2850
          3201 3200 495 385 501 490
          2836 2844 3227 3199 2843 3188
          490 385 515 347 2843 2850
          3228 2619 3288 2634 197 475
          504 498 2884 3091 2889 3229
          3230 3266 475 422 504 476
          2885 2888 3091 3100 2897 3163
          197 504 458 498 2889 3053
          3231 3229 3266 3081 423 483
          505 478 2891 3090 2926 2934
          3098 3239 425 505 476 478
          2894 3232 2927 2936 3239 3099
          506 426 493 491 2900 2908
          3168 3095 2911 3086 150 493
          491 469 2907 3086 2912 3209
          3233 3234 428 499 510 496
          2914 3235 2930 2941 3094 3083
          422 475 494 479 2885 3237
          2932 2946 3101 3082 431 494
          499 479 2922 3238 2933 2948
          3082 3093 429 499 496 479
          2925 3094 2944 2949 3093 3244
          491 426 510 496 2911 3240
          3236 3104 2945 3083 476 422
          478 479 2897 3241 3099 3267
          2946 3102 426 506 496 249
          2900 3242 2945 3268 2080 2092
          496 433 479 478 2942 2951
          3244 3106 2950 3102 446 457
          456 507 2971 3056 2974 3004
          3248 3250 455 447 456 480
          2977 3009 3245 3293 3002 3294
          454 448 455 481 2980 3010
          3246 3261 2999 3251 452 450
          453 459 2984 3014 3047 3253
          3018 3262 197 507 498 457
          2986 3059 3229 2989 3248 3259
          457 197 458 498 2989 3231
          3051 3259 3229 3081 451 460
          459 452 2992 3073 3017 3015
          3295 3253 481 448 482 454
          2999 3020 3062 3261 2980 3252
          447 480 507 456 3002 3060
          3022 3009 3294 3250 480 447
          481 455 3002 3021 3061 3293
          2977 3251 451 517 460 452
          3007 3249 2992 3015 3046 3295
          517 164 460 461 3005 3008
          3249 3285 3219 3067 449 454
          453 482 3011 3048 3013 2996
          3252 3042 453 450 482 459
          3014 3019 3042 3262 3018 3064
          345 497 461 517 3023 3254
          3182 3184 3055 3285 516 208
          507 457 1894 3255 3070 3260
          3030 3248 516 508 455 480
          3024 3043 3256 3264 3071 3293
          453 212 452 459 1907 3041
          3047 3262 1898 3253 455 220
          516 456 1956 3258 3256 3245
          1958 3034 458 207 457 498
          3031 3032 3051 3081 3069 3259
          516 456 457 507 3034 3056
          3260 3070 3250 3248 211 454
          481 482 1910 3261 3257 3036
          3252 3062 454 508 481 455
          3035 3072 3261 3246 3043 3251
          459 509 452 460 3039 3027
          3253 3073 3074 3295 517 452
          497 460 3046 3263 3055 3249
          3295 3265 509 497 452 460
          3025 3263 3027 3074 3265 3295
          507 480 516 456 3060 3264
          3070 3250 3294 3034 480 481
          508 455 3061 3072 3071 3293
          3251 3043 460 461 497 517
          3067 3254 3265 3249 3285 3055
          471 334 461 517 2607 3068
          3220 3287 3045 3285 475 476
          479 422 3100 3267 3101 2885
          2897 2946 462 500 492 470
          3114 3269 3211 3292 3155 3281
          466 467 512 485 3120 3157
          3158 3291 3217 3149 288 467
          468 485 2354 3133 3124 3275
          3217 3139 463 464 518 488
          3130 3274 3159 3213 3289 3278
          464 465 514 487 3131 3272
          3136 3214 3290 3277 465 466
          513 486 3132 3271 3135 3215
          3216 3276 486 487 513 465
          3140 3151 3276 3215 3290 3135
          487 488 514 464 3141 3152
          3277 3214 3289 3136 488 511
          518 463 3142 3153 3278 3213
          3282 3159 123 470 157 492
          2304 3212 3279 3178 3281 2808
          511 470 500 462 3144 3155
          3280 3161 3292 3114 518 514
          488 464 3146 3152 3278 3274
          3136 3289 514 513 487 465
          3147 3151 3277 3272 3135 3290
          513 512 486 466 3148 3150
          3276 3271 3158 3216 512 485
          486 466 3149 3210 3150 3158
          3291 3216 456 455 480 516
          3245 3293 3294 3034 3256 3264
        </DataArray>
        <DataArray type="Int32" Name="offsets" format="ascii" RangeMin="10" RangeMax="18120">
          10 20 30 40 50 60
          70 80 90 100 110 120
          130 140 150 160 170 180
          190 200 210 220 230 240
          250 260 270 280 290 300
          310 320 330 340 350 360
          370 380 390 400 410 420
          430 440 450 460 470 480
          490 500 510 520 530 540
          550 560 570 580 590 600
          610 620 630 640 650 660
          670 680 690 700 710 720
          730 740 750 760 770 780
          790 800 810 820 830 840
          850 860 870 880 890 900
          910 920 930 940 950 960
          970 980 990 1000 1010 1020
          1030 1040 1050 1060 1070 1080
          1090 1100 1110 1120 1130 1140
          1150 1160 1170 1180 1190 1200
          1210 1220 1230 1240 1250 1260
          1270 1280 1290 1300 1310 1320
          1330 1340 1350 1360 1370 1380
          1390 1400 1410 1420 1430 1440
          1450 1460 1470 1480 1490 1500
          1510 1520 1530 1540 1550 1560
          1570 1580 1590 1600 1610 1620
          1630 1640 1650 1660 1670 1680
          1690 1700 1710 1720 1730 1740
          1750 1760 1770 1780 1790 1800
          1810 1820 1830 1840 1850 1860
          1870 1880 1890 1900 1910 1920
          1930 1940 1950 1960 1970 1980
          1990 2000 2010 2020 2030 2040
          2050 2060 2070 2080 2090 2100
          2110 2120 2130 2140 2150 2160
          2170 2180 2190 2200 2210 2220
          2230 2240 2250 2260 2270 2280
          2290 2300 2310 2320 2330 2340
          2350 2360 2370 2380 2390 2400
          2410 2420 2430 2440 2450 2460
          2470 2480 2490 2500 2510 2520
          2530 2540 2550 2560 2570 2580
          2590 2600 2610 2620 2630 2640
          2650 2660 2670 2680 2690 2700
          2710 2720 2730 2740 2750 2760
          2770 2780 2790 2800 2810 2820
          2830 2840 2850 2860 2870 2880
          2890 2900 2910 2920 2930 2940
          2950 2960 2970 2980 2990 3000
          3010 3020 3030 3040 3050 3060
          3070 3080 3090 3100 3110 3120
          3130 3140 3150 3160 3170 3180
          3190 3200 3210 3220 3230 3240
          3250 3260 3270 3280 3290 3300
          3310 3320 3330 3340 3350 3360
          3370 3380 3390 3400 3410 3420
          3430 3440 3450 3460 3470 3480
          3490 3500 3510 3520 3530 3540
          3550 3560 3570 3580 3590 3600
          3610 3620 3630 3640 3650 3660
          3670 3680 3690 3700 3710 3720
          3730 3740 3750 3760 3770 3780
          3790 3800 3810 3820 3830 3840
          3850 3860 3870 3880 3890 3900
          3910 3920 3930 3940 3950 3960
          3970 3980 3990 4000 4010 4020
          4030 4040 4050 4060 4070 4080
          4090 4100 4110 4120 4130 4140
          4150 4160 4170 4180 4190 4200
          4210 4220 4230 4240 4250 4260
          4270 4280 4290 4300 4310 4320
          4330 4340 4350 4360 4370 4380
          4390 4400 4410 4420 4430 4440
          4450 4460 4470 4480 4490 4500
          4510 4520 4530 4540 4550 4560
          4570 4580 4590 4600 4610 4620
          4630 4640 4650 4660 4670 4680
          4690 4700 4710 4720 4730 4740
          4750 4760 4770 4780 4790 4800
          4810 4820 4830 4840 4850 4860
          4870 4880 4890 4900 4910 4920
          4930 4940 4950 4960 4970 4980
          4990 5000 5010 5020 5030 5040
          5050 5060 5070 5080 5090 5100
          5110 5120 5130 5140 5150 5160
          5170 5180 5190 5200 5210 5220
          5230 5240 5250 5260 5270 5280
          5290 5300 5310 5320 5330 5340
          5350 5360 5370 5380 5390 5400
          5410 5420 5430 5440 5450 5460
          5470 5480 5490 5500 5510 5520
          5530 5540 5550 5560 5570 5580
          5590 5600 5610 5620 5630 5640
          5650 5660 5670 5680 5690 5700
          5710 5720 5730 5740 5750 5760
          5770 5780 5790 5800 5810 5820
          5830 5840 5850 5860 5870 5880
          5890 5900 5910 5920 5930 5940
          5950 5960 5970 5980 5990 6000
          6010 6020 6030 6040 6050 6060
          6070 6080 6090 6100 6110 6120
          6130 6140 6150 6160 6170 6180
          6190 6200 6210 6220 6230 6240
          6250 6260 6270 6280 6290 6300
          6310 6320 6330 6340 6350 6360
          6370 6380 6390 6400 6410 6420
          6430 6440 6450 6460 6470 6480
          6490 6500 6510 6520 6530 6540
          6550 6560 6570 6580 6590 6600
          6610 6620 6630 6640 6650 6660
          6670 6680 6690 6700 6710 6720
          6730 6740 6750 6760 6770 6780
          6790 6800 6810 6820 6830 6840
          6850 6860 6870 6880 6890 6900
          6910 6920 6930 6940 6950 6960
          6970 6980 6990 7000 7010 7020
          7030 7040 7050 7060 7070 7080
          7090 7100 7110 7120 7130 7140
          7150 7160 7170 7180 7190 7200
          7210 7220 7230 7240 7250 7260
          7270 7280 7290 7300 7310 7320
          7330 7340 7350 7360 7370 7380
          7390 7400 7410 7420 7430 7440
          7450 7460 7470 7480 7490 7500
          7510 7520 7530 7540 7550 7560
          7570 7580 7590 7600 7610 7620
          7630 7640 7650 7660 7670 7680
          7690 7700 7710 7720 7730 7740
          7750 7760 7770 7780 7790 7800
          7810 7820 7830 7840 7850 7860
          7870 7880 7890 7900 7910 7920
          7930 7940 7950 7960 7970 7980
          7990 8000 8010 8020 8030 8040
          8050 8060 8070 8080 8090 8100
          8110 8120 8130 8140 8150 8160
          8170 8180 8190 8200 8210 8220
          8230 8240 8250 8260 8270 8280
          8290 8300 8310 8320 8330 8340
          8350 8360 8370 8380 8390 8400
          8410 8420 8430 8440 8450 8460
          8470 8480 8490 8500 8510 8520
          8530 8540 8550 8560 8570 8580
          8590 8600 8610 8620 8630 8640
          8650 8660 8670 8680 8690 8700
          8710 8720 8730 8740 8750 8760
          8770 8780 8790 8800 8810 8820
          8830 8840 8850 8860 8870 8880
          8890 8900 8910 8920 8930 8940
          8950 8960 8970 8980 8990 9000
          9010 9020 9030 9040 9050 9060
          9070 9080 9090 9100 9110 9120
          9130 9140 9150 9160 9170 9180
          9190 9200 9210 9220 9230 9240
          9250 9260 9270 9280 9290 9300
          9310 9320 9330 9340 9350 9360
          9370 9380 9390 9400 9410 9420
          9430 9440 9450 9460 9470 9480
          9490 9500 9510 9520 9530 9540
          9550 9560 9570 9580 9590 9600
          9610 9620 9630 9640 9650 9660
          9670 9680 9690 9700 9710 9720
          9730 9740 9750 9760 9770 9780
          9790 9800 9810 9820 9830 9840
          9850 9860 9870 9880 9890 9900
          9910 9920 9930 9940 9950 9960
          9970 9980 9990 10000 10010 10020
          10030 10040 10050 10060 10070 10080
          10090 10100 10110 10120 10130 10140
          10150 10160 10170 10180 10190 10200
          10210 10220 10230 10240 10250 10260
          10270 10280 10290 10300 10310 10320
          10330 10340 10350 10360 10370 10380
          10390 10400 10410 10420 10430 10440
          10450 10460 10470 10480 10490 10500
          10510 10520 10530 10540 10550 10560
          10570 10580 10590 10600 10610 10620
          10630 10640 10650 10660 10670 10680
          10690 10700 10710 10720 10730 10740
          10750 10760 10770 10780 10790 10800
          10810 10820 10830 10840 10850 10860
          10870 10880 10890 10900 10910 10920
          10930 10940 10950 10960 10970 10980
          10990 11000 11010 11020 11030 11040
          11050 11060 11070 11080 11090 11100
          11110 11120 11130 11140 11150 11160
          11170 11180 11190 11200 11210 11220
          11230 11240 11250 11260 11270 11280
          11290 11300 11310 11320 11330 11340
          11350 11360 11370 11380 11390 11400
          11410 11420 11430 11440 11450 11460
          11470 11480 11490 11500 11510 11520
          11530 11540 11550 11560 11570 11580
          11590 11600 11610 11620 11630 11640
          11650 11660 11670 11680 11690 11700
          11710 11720 11730 11740 11750 11760
          11770 11780 11790 11800 11810 11820
          11830 11840 11850 11860 11870 11880
          11890 11900 11910 11920 11930 11940
          11950 11960 11970 11980 11990 12000
          12010 12020 12030 12040 12050 12060
          12070 12080 12090 12100 12110 12120
          12130 12140 12150 12160 12170 12180
          12190 12200 12210 12220 12230 12240
          12250 12260 12270 12280 12290 12300
          12310 12320 12330 12340 12350 12360
          12370 12380 12390 12400 12410 12420
          12430 12440 12450 12460 12470 12480
          12490 12500 12510 12520 12530 12540
          12550 12560 12570 12580 12590 12600
          12610 12620 12630 12640 12650 12660
          12670 12680 12690 12700 12710 12720
          12730 12740 12750 12760 12770 12780
          12790 12800 12810 12820 12830 12840
          12850 12860 12870 12880 12890 12900
          12910 12920 12930 12940 12950 12960
          12970 12980 12990 13000 13010 13020
          13030 13040 13050 13060 13070 13080
          13090 13100 13110 13120 13130 13140
          13150 13160 13170 13180 13190 13200
          13210 13220 13230 13240 13250 13260
          13270 13280 13290 13300 13310 13320
          13330 13340 13350 13360 13370 13380
          13390 13400 13410 13420 13430 13440
          13450 13460 13470 13480 13490 13500
          13510 13520 13530 13540 13550 13560
          13570 13580 13590 13600 13610 13620
          13630 13640 13650 13660 13670 13680
          13690 13700 13710 13720 13730 13740
          13750 13760 13770 13780 13790 13800
          13810 13820 13830 13840 13850 13860
          13870 13880 13890 13900 13910 13920
          13930 13940 13950 13960 13970 13980
          13990 14000 14010 14020 14030 14040
          14050 14060 14070 14080 14090 14100
          14110 14120 14130 14140 14150 14160
          14170 14180 14190 14200 14210 14220
          14230 14240 14250 14260 14270 14280
          14290 14300 14310 14320 14330 14340
          14350 14360 14370 14380 14390 14400
          14410 14420 14430 14440 14450 14460
          14470 14480 14490 14500 14510 14520
          14530 14540 14550 14560 14570 14580
          14590 14600 14610 14620 14630 14640
          14650 14660 14670 14680 14690 14700
          14710 14720 14730 14740 14750 14760
          14770 14780 14790 14800 14810 14820
          14830 14840 14850 14860 14870 14880
          14890 14900 14910 14920 14930 14940
          14950 14960 14970 14980 14990 15000
          15010 15020 15030 15040 15050 15060
          15070 15080 15090 15100 15110 15120
          15130 15140 15150 15160 15170 15180
          15190 15200 15210 15220 15230 15240
          15250 15260 15270 15280 15290 15300
          15310 15320 15330 15340 15350 15360
          15370 15380 15390 15400 15410 15420
          15430 15440 15450 15460 15470 15480
          15490 15500 15510 15520 15530 15540
          15550 15560 15570 15580 15590 15600
          15610 15620 15630 15640 15650 15660
          15670 15680 15690 15700 15710 15720
          15730 15740 15750 15760 15770 15780
          15790 15800 15810 15820 15830 15840
          15850 15860 15870 15880 15890 15900
          15910 15920 15930 15940 15950 15960
          15970 15980 15990 16000 16010 16020
          16030 16040 16050 16060 16070 16080
          16090 16100 16110 16120 16130 16140
          16150 16160 16170 16180 16190 16200
          16210 16220 16230 16240 16250 16260
          16270 16280 16290 16300 16310 16320
          16330 16340 16350 16360 16370 16380
          16390 16400 16410 16420 16430 16440
          16450 16460 16470 16480 16490 16500
          16510 16520 16530 16540 16550 16560
          16570 16580 16590 16600 16610 16620
          16630 16640 16650 16660 16670 16680
          16690 16700 16710 16720 16730 16740
          16750 16760 16770 16780 16790 16800
          16810 16820 16830 16840 16850 16860
          16870 16880 16890 16900 16910 16920
          16930 16940 16950 16960 16970 16980
          16990 17000 17010 17020 17030 17040
          17050 17060 17070 17080 17090 17100
          17110 17120 17130 17140 17150 17160
          17170 17180 17190 17200 17210 17220
          17230 17240 17250 17260 17270 17280
          17290 17300 17310 17320 17330 17340
          17350 17360 17370 17380 17390 17400
          17410 17420 17430 17440 17450 17460
          17470 17480 17490 17500 17510 17520
          17530 17540 17550 17560 17570 17580
          17590 17600 17610 17620 17630 17640
          17650 17660 17670 17680 17690 17700
          17710 17720 17730 17740 17750 17760
          17770 17780 17790 17800 17810 17820
          17830 17840 17850 17860 17870 17880
          17890 17900 17910 17920 17930 17940
          17950 17960 17970 17980 17990 18000
          18010 18020 18030 18040 18050 18060
          18070 18080 18090 18100 18110 18120
        </DataArray>
        <DataArray type="UInt8" Name="types" format="ascii" RangeMin="24" RangeMax="24">
          24 24 24 24 24 24
          24 24 24 24 24 24
          24 24 24 24 24 24
          24 24 24 24 24 24
          24 24 24 24 24 24
          24 24 24 24 24 24
          24 24 24 24 24 24
          24 24 24 24 24 24
          24 24 24 24 24 24
          24 24 24 24 24 24
          24 24 24 24 24 24
          24 24 24 24 24 24
          24 24 24 24 24 24
          24 24 24 24 24 24
          24 24 24 24 24 24
          24 24 24 24 24 24
          24 24 24 24 24 24
          24 24 24 24 24 24
          24 24 24 24 24 24
          24 24 24 24 24 24
          24 24 24 24 24 24
          24 24 24 24 24 24
          24 24 24 24 24 24
          24 24 24 24 24 24
          24 24 24 24 24 24
          24 24 24 24 24 24
          24 24 24 24 24 24
          24 24 24 24 24 24
          24 24 24 24 24 24
          24 24 24 24 24 24
          24 24 24 24 24 24
          24 24 24 24 24 24
          24 24 24 24 24 24
          24 24 24 24 24 24
          24 24 24 24 24 24
          24 24 24 24 24 24
          24 24 24 24 24 24
          24 24 24 24 24 24
          24 24 24 24 24 24
          24 24 24 24 24 24
          24 24 24 24 24 24
          24 24 24 24 24 24
          24 24 24 24 24 24
          24 24 24 24 24 24
          24 24 24 24 24 24
          24 24 24 24 24 24
          24 24 24 24 24 24
          24 24 24 24 24 24
          24 24 24 24 24 24
          24 24 24 24 24 24
          24 24 24 24 24 24
          24 24 24 24 24 24
          24 24 24 24 24 24
          24 24 24 24 24 24
          24 24 24 24 24 24
          24 24 24 24 24 24
          24 24 24 24 24 24
          24 24 24 24 24 24
          24 24 24 24 24 24
          24 24 24 24 24 24
          24 24 24 24 24 24
          24 24 24 24 24 24
          24 24 24 24 24 24
          24 24 24 24 24 24
          24 24 24 24 24 24
          24 24 24 24 24 24
          24 24 24 24 24 24
          24 24 24 24 24 24
          24 24 24 24 24 24
          24 24 24 24 24 24
          24 24 24 24 24 24
          24 24 24 24 24 24
          24 24 24 24 24 24
          24 24 24 24 24 24
          24 24 24 24 24 24
          24 24 24 24 24 24
          24 24 24 24 24 24
          24 24 24 24 24 24
          24 24 24 24 24 24
          24 24 24 24 24 24
          24 24 24 24 24 24
          24 24 24 24 24 24
          24 24 24 24 24 24
          24 24 24 24 24 24
          24 24 24 24 24 24
          24 24 24 24 24 24
          24 24 24 24 24 24
          24 24 24 24 24 24
          24 24 24 24 24 24
          24 24 24 24 24 24
          24 24 24 24 24 24
          24 24 24 24 24 24
          24 24 24 24 24 24
          24 24 24 24 24 24
          24 24 24 24 24 24
          24 24 24 24 24 24
          24 24 24 24 24 24
          24 24 24 24 24 24
          24 24 24 24 24 24
          24 24 24 24 24 24
          24 24 24 24 24 24
          24 24 24 24 24 24
          24 24 24 24 24 24
          24 24 24 24 24 24
          24 24 24 24 24 24
          24 24 24 24 24 24
          24 24 24 24 24 24
          24 24 24 24 24 24
          24 24 24 24 24 24
          24 24 24 24 24 24
          24 24 24 24 24 24
          24 24 24 24 24 24
          24 24 24 24 24 24
          24 24 24 24 24 24
          24 24 24 24 24 24
          24 24 24 24 24 24
          24 24 24 24 24 24
          24 24 24 24 24 24
          24 24 24 24 24 24
          24 24 24 24 24 24
          24 24 24 24 24 24
          24 24 24 24 24 24
          24 24 24 24 24 24
          24 24 24 24 24 24
          24 24 24 24 24 24
          24 24 24 24 24 24
          24 24 24 24 24 24
          24 24 24 24 24 24
          24 24 24 24 24 24
          24 24 24 24 24 24
          24 24 24 24 24 24
          24 24 24 24 24 24
          24 24 24 24 24 24
          24 24 24 24 24 24
          24 24 24 24 24 24
          24 24 24 24 24 24
          24 24 24 24 24 24
          24 24 24 24 24 24
          24 24 24 24 24 24
          24 24 24 24 24 24
          24 24 24 24 24 24
          24 24 24 24 24 24
          24 24 24 24 24 24
          24 24 24 24 24 24
          24 24 24 24 24 24
          24 24 24 24 24 24
          24 24 24 24 24 24
          24 24 24 24 24 24
          24 24 24 24 24 24
          24 24 24 24 24 24
          24 24 24 24 24 24
          24 24 24 24 24 24
          24 24 24 24 24 24
          24 24 24 24 24 24
          24 24 24 24 24 24
          24 24 24 24 24 24
          24 24 24 24 24 24
          24 24 24 24 24 24
          24 24 24 24 24 24
          24 24 24 24 24 24
          24 24 24 24 24 24
          24 24 24 24 24 24
          24 24 24 24 24 24
          24 24 24 24 24 24
          24 24 24 24 24 24
          24 24 24 24 24 24
          24 24 24 24 24 24
          24 24 24 24 24 24
          24 24 24 24 24 24
          24 24 24 24 24 24
          24 24 24 24 24 24
          24 24 24 24 24 24
          24 24 24 24 24 24
          24 24 24 24 24 24
          24 24 24 24 24 24
          24 24 24 24 24 24
          24 24 24 24 24 24
          24 24 24 24 24 24
          24 24 24 24 24 24
          24 24 24 24 24 24
          24 24 24 24 24 24
          24 24 24 24 24 24
          24 24 24 24 24 24
          24 24 24 24 24 24
          24 24 24 24 24 24
          24 24 24 24 24 24
          24 24 24 24 24 24
          24 24 24 24 24 24
          24 24 24 24 24 24
          24 24 24 24 24 24
          24 24 24 24 24 24
          24 24 24 24 24 24
          24 24 24 24 24 24
          24 24 24 24 24 24
          24 24 24 24 24 24
          24 24 24 24 24 24
          24 24 24 24 24 24
          24 24 24 24 24 24
          24 24 24 24 24 24
          24 24 24 24 24 24
          24 24 24 24 24 24
          24 24 24 24 24 24
          24 24 24 24 24 24
          24 24 24 24 24 24
          24 24 24 24 24 24
          24 24 24 24 24 24
          24 24 24 24 24 24
          24 24 24 24 24 24
          24 24 24 24 24 24
          24 24 24 24 24 24
          24 24 24 24 24 24
          24 24 24 24 24 24
          24 24 24 24 24 24
          24 24 24 24 24 24
          24 24 24 24 24 24
          24 24 24 24 24 24
          24 24 24 24 24 24
          24 24 24 24 24 24
          24 24 24 24 24 24
          24 24 24 24 24 24
          24 24 24 24 24 24
          24 24 24 24 24 24
          24 24 24 24 24 24
          24 24 24 24 24 24
          24 24 24 24 24 24
          24 24 24 24 24 24
          24 24 24 24 24 24
          24 24 24 24 24 24
          24 24 24 24 24 24
          24 24 24 24 24 24
          24 24 24 24 24 24
          24 24 24 24 24 24
          24 24 24 24 24 24
          24 24 24 24 24 24
          24 24 24 24 24 24
          24 24 24 24 24 24
          24 24 24 24 24 24
          24 24 24 24 24 24
          24 24 24 24 24 24
          24 24 24 24 24 24
          24 24 24 24 24 24
          24 24 24 24 24 24
          24 24 24 24 24 24
          24 24 24 24 24 24
          24 24 24 24 24 24
          24 24 24 24 24 24
          24 24 24 24 24 24
          24 24 24 24 24 24
          24 24 24 24 24 24
          24 24 24 24 24 24
          24 24 24 24 24 24
          24 24 24 24 24 24
          24 24 24 24 24 24
          24 24 24 24 24 24
          24 24 24 24 24 24
          24 24 24 24 24 24
          24 24 24 24 24 24
          24 24 24 24 24 24
          24 24 24 24 24 24
          24 24 24 24 24 24
          24 24 24 24 24 24
          24 24 24 24 24 24
          24 24 24 24 24 24
          24 24 24 24 24 24
          24 24 24 24 24 24
          24 24 24 24 24 24
          24 24 24 24 24 24
          24 24 24 24 24 24
          24 24 24 24 24 24
          24 24 24 24 24 24
          24 24 24 24 24 24
          24 24 24 24 24 24
          24 24 24 24 24 24
          24 24 24 24 24 24
          24 24 24 24 24 24
          24 24 24 24 24 24
          24 24 24 24 24 24
          24 24 24 24 24 24
          24 24 24 24 24 24
          24 24 24 24 24 24
          24 24 24 24 24 24
          24 24 24 24 24 24
          24 24 24 24 24 24
          24 24 24 24 24 24
          24 24 24 24 24 24
          24 24 24 24 24 24
          24 24 24 24 24 24
          24 24 24 24 24 24
          24 24 24 24 24 24
          24 24 24 24 24 24
          24 24 24 24 24 24
          24 24 24 24 24 24
          24 24 24 24 24 24
          24 24 24 24 24 24
          24 24 24 24 24 24
          24 24 24 24 24 24
          24 24 24 24 24 24
          24 24 24 24 24 24
          24 24 24 24 24 24
          24 24 24 24 24 24
          24 24 24 24 24 24
          24 24 24 24 24 24
        </DataArray>
      </Cells>
    </Piece>
  </UnstructuredGrid>
</VTKFile>
