<?xml version="1.0"?>
<VTKFile type="UnstructuredGrid" version="0.1" byte_order="LittleEndian" header_type="UInt32" compressor="vtkZLibDataCompressor">
  <UnstructuredGrid>
    <Piece NumberOfPoints="853" NumberOfCells="388">
      <PointData Scalars="Contrainte:von Mises">
        <DataArray type="Float32" Name="Contrainte:von Mises" format="ascii" RangeMin="0.033163543791" RangeMax="12.340844154">
          9.200551033 9.2260951996 9.4510707855 8.7869615555 8.7488393784 8.9014863968
          9.7417478561 8.9905147552 6.8760280609 11.244380951 10.480829239 7.2849993706
          7.1049170494 7.3762798309 9.5373926163 10.566727638 10.405677795 9.883275032
          9.7113132477 9.5555362701 9.0912065506 9.5147895813 10.503334045 11.829945564
          7.6837148666 7.9346289635 9.9550638199 10.692027092 6.414973259 9.0347747803
          11.737903595 12.340844154 4.6059193611 5.408164978 4.1972322464 4.4291396141
          1.6716451645 0.64588546753 0.19692347944 0.73023170233 0.89107227325 0.7327914834
          0.30864986777 0.55977791548 2.6625974178 1.8343955278 0.6647349596 0.34336018562
          0.71884959936 0.86855792999 0.70152044296 0.25048205256 0.6740578413 2.185958147
          8.3502206802 8.2078409195 8.2488822937 8.2381792068 2.141561985 0.91558879614
          0.033163543791 0.39435568452 0.43956932425 0.10095138848 0.76103210449 3.6114733219
          2.1901776791 0.89774239063 0.10521382838 0.40953928232 0.410287112 0.084635823965
          0.93291974068 2.468309164 6.1037602425 6.904209137 8.5214309692 3.0369775295
          1.8806041479 2.0560367107 2.383575201 2.9745380878 5.2857089043 7.0531477928
          7.144636631 6.4654464722 6.7416968346 5.5736017227 6.3289923668 2.6420898438
          1.8146492243 1.3038802147 1.3502566814 1.4985636473 2.7316803932 3.9336285591
          6.2957406044 8.5485439301 6.0535159111 4.3459391594 6.8678994179 7.6927576065
          3.2250928879 2.5770046711 7.4704022408 6.2577700615 4.5812320709 6.7536187172
          6.0937080383 3.9127781391 6.2058525085 6.2736783028 4.2484869957 5.2554388046
          5.1445217133 5.8150334358 6.653192997 7.5461678505 2.9177162647 1.8832542896
          2.1526772976 2.3910295963 2.907258749 5.4980607033 7.4575710297 7.3508968353
          6.1365981102 5.5207285881 5.261071682 6.2471604347 6.7742967606 2.5715858936
          2.0692043304 1.3641352654 1.211841464 1.3576915264 2.8064193726 7.1142148972
          6.3867135048 4.697766304 6.6468367577 7.5856733322 2.5478687286 6.5605783463
          6.3043980598 4.1894369125 3.6197340488 4.2100272179 6.9108781815 6.0996665955
          3.3230407238 7.8092188835 5.7099747658 5.2200374603 5.1702389717 7.5378780365
          7.6272358894 9.2411603928 7.2281060219 7.7762751579 8.9541254044 11.154314041
          11.651724815 11.086177826 10.860375404 8.571639061 8.286242485 7.6203422546
          7.1901111603 7.2232813835 9.4931259155 12.248693466 11.691988945 11.707366943
          12.294651985 9.7487821579 11.404372215 10.157161713 6.4555211067 5.5134301186
          4.6409263611 5.3836927414 4.8576960564 4.2989034653 4.9680533409 7.0971236229
          10.113746643 9.4537324905 10.534111023 6.5035300255 1.2077045441 0.22684292495
          0.45621570945 0.74820232391 0.7495225668 0.46125301719 0.22240668535 1.3227741718
          6.0886435509 6.1839733124 1.2438101768 0.22294189036 0.45202493668 0.72735512257
          0.74006849527 0.43206220865 0.22540305555 1.122928381 6.6448016167 10.843554497
          10.420000076 10.939875603 9.7455387115 8.8175029755 8.1955394745 8.8155908585
          8.7466964722 8.0569381714 8.8983707428 9.3878097534 10.991152763 10.512014389
          12.312355995 7.1555099487 1.5269076824 0.42049214244 0.18407729268 0.36428335309
          0.19931283593 0.36887255311 1.6320759058 7.0004248619 6.9238820076 1.628916502
          0.35788574815 0.18184541166 0.36248058081 0.15930686891 0.42957621813 1.6889945269
          7.5987172127 7.0356454849 7.841958046 8.2820997238 11.384166718 11.750922203
          10.288827896 7.9471812248 7.9741539955 8.0481386185 12.248318672 12.04628849
          12.002911568 9.2731027603 4.3656740189 4.3372535706 3.3301081657 3.5298781395
          4.0972795486 9.2547855377 6.236989975 1.5321874619 1.1419996023 0.57677698135
          0.1933529228 0.2493353039 0.4447132349 0.71909314394 0.73184263706 0.88470506668
          0.74439668655 0.72066020966 0.44623056054 0.28990066051 0.1872112304 0.53121334314
          0.96531182528 5.4285821915 2.5049386024 10.124190331 8.6514453888 8.0938472748
          8.2521190643 8.8177509308 8.1977729797 10.163178444 6.9859790802 1.9609084129
          1.4717116356 0.8212736249 0.39466321468 0.052879814059 0.20443661511 0.3853545785
          0.39360421896 0.4010219872 0.19433449209 0.05998845771 0.39658918977 0.78696852922
          1.5497983694 6.0874228477 2.8566024303 3.5963463783 7.726583004 3.1983687878
          1.4310312271 1.8391211033 0.69781535864 0.94793069363 0.84802556038 0.85297763348
          1.2242141962 0.99180036783 1.8509019613 1.4563107491 3.8840148449 2.9363474846
          9.7063579559 3.6474702358 8.4529647827 8.6363229752 7.9539165497 7.5989055634
          7.7727203369 7.7424888611 8.4543352127 3.026522398 7.2072110176 2.8063344955
          1.1098713875 1.5053335428 0.5675457716 0.78850466013 0.20348773897 0.37389156222
          0.39150553942 0.29526236653 0.67108654976 0.45972719789 1.5811803341 1.1941395998
          2.8969008923 2.1785347462 8.1228103638 2.9821534157 7.687432766 8.4296045303
          6.8943524361 6.4952335358 7.5511865616 7.0266904831 9.2068471909 7.2140884399
          8.0894851685 7.0860075951 7.8687796593 4.7687544823 8.4441957474 5.3497786522
          5.070851326 6.6928272247 6.7448849678 6.4370818138 6.880188942 4.7273306847
          7.508646965 6.3621850014 4.6532306671 6.8727202415 8.0410404205 4.4695987701
          2.3846178055 1.9230213165 2.2915186882 2.669852972 4.1459126472 6.0896677971
          7.9624271393 6.768032074 6.4953145981 6.608549118 7.5229201317 6.2843761444
          6.2435822487 3.9832344055 2.1630957127 1.5946635008 1.3452659845 1.4271097183
          2.1415207386 3.2234818935 5.2150225639 7.2987618446 6.2286572456 6.3407335281
          7.3987436295 6.7589912415 5.4998950958 7.6965084076 8.8297843933 8.0213785172
          5.3138608932 4.8951964378 7.6231017113 7.6419920921 4.3609576225 4.1104521751
          5.7136497498 7.8473024368 6.5320005417 4.0348186493 4.1916952133 6.7844181061
          7.4700045586 5.6618924141 7.1401014328 6.8912844658 4.3933730125 5.9148139954
          3.721165657 3.7506184578 3.559779644 3.4673073292 4.7611069679 4.3026514053
          6.0597505569 7.4656968117 6.6896724701 6.661690712 5.6996822357 5.7768602371
          5.7382941246 5.3304982185 6.2635850906 6.007566452 4.2806010246 5.6817593575
          3.8644316196 2.6782670021 3.0112476349 2.594763279 2.5990447998 3.0537550449
          2.8474676609 3.7771601677 5.0522913933 4.6065459251 6.189722538 5.7836747169
          6.3824839592 5.784954071 5.5226287842 6.2533121109 5.7261328697 4.6074233055
          5.8714432716 6.8299689293 5.265789032 5.2884516716 4.6905212402 5.1006731987
          5.9678754807 3.5719733238 8.1710939407 3.095035553 1.391679287 1.8200383186
          0.71424973011 0.93727958202 0.87468475103 0.87680232525 1.2125095129 0.97712284327
          1.7320361137 1.3949793577 4.09968853 2.9740207195 8.2088842392 4.796746254
          8.8411540985 7.7894177437 6.6827764511 6.8378548622 7.1169290543 7.5538468361
          8.6226177216 3.0629899502 7.7337436676 2.683303833 1.123773694 1.5231252909
          0.66000270844 0.9160951376 0.280474931 0.38710814714 0.33759561181 0.16418789327
          0.59680294991 0.34937927127 1.5321983099 1.2053402662 3.4849796295 2.8937487602
          6.9594025612 8.0967445374 8.2294874191 7.9705247879 7.7382569313 7.6853218079
          7.5213904381 9.0567684174 7.6994819641 7.57908535 7.6364078522 4.0123171806
          5.2224736214 8.4362487793 5.0535173416 6.4748802185 6.5215358734 7.0146298409
          6.5652484894 3.6354238987 6.4429550171 7.4776740074 4.5731420517 6.5277748108
          7.7875351906 4.2843523026 2.4094307423 2.0014328957 2.3259110451 2.6178929806
          4.1122431755 6.4053149223 7.4294986725 6.9866485596 6.6840634346 6.7214694023
          6.1042790413 7.1596240997 5.8575429916 7.5065226555 3.7866680622 2.284412384
          1.7399345636 1.3323794603 1.3016564846 2.0540137291 4.0973138809 6.1843647957
          6.1858305931 6.6514611244 6.5377378464 5.6167845726 7.9790186882 7.772313118
          5.1985611916 4.7222766876 4.7063112259 7.7999858856 7.7205786705 4.062640667
          4.0082850456 6.5041184425 7.7592077255 5.4430556297 4.0928263664 5.7613945007
          8.7675209045 7.6813421249 6.9658560753 7.0695991516 6.8520064354 4.3383264542
          5.8162522316 3.6838512421 3.6842460632 3.7398073673 3.6192212105 4.5211744308
          4.181517601 5.8905038834 7.5629029274 6.9355530739 6.4919495583 5.8088307381
          5.7467951775 5.6173267365 5.4409484863 6.1257834435 6.0730924606 4.2083072662
          5.5008487701 3.9123015404 2.9014277458 3.4234342575 2.6275455952 2.6034126282
          2.7204284668 2.5532562733 3.487341404 5.9859156609 4.6797161102 6.0863876343
          6.2574262619 5.6349573135 5.5793247223 5.9217939377 5.5254426003 7.4934368134
          5.702709198 4.6388049126 5.3676886559 6.996758461 5.5532407761 5.1290307045
          4.7852287292 6.0096325874 4.0970892906 5.6229929924 5.5967516899 4.551607132
          6.6468772888 6.4777841568 6.9471564293 6.612991333 4.7161283493 4.9100642204
          5.8108224869 3.8330874443 8.0461921692 7.2156682014 7.4839220047 7.6708397865
          8.0442028046 9.9928817749 7.1313157082 7.2761750221 6.8211345673 7.8345775604
          9.2947044373 7.6653203964 2.4936225414 2.6785640717 1.0751839876 0.82386350632
          0.559017241 0.36831492186 0.22160302103 0.34140726924 0.60989528894 1.6236525774
          2.0297622681 2.7886006832 7.5938296318 7.199007988 1.5452159643 0.19921854138
          0.36517190933 1.181219101 3.8032274246 8.1074733734 8.7383203506 7.8626298904
          8.4863262177 7.597820282 8.4004812241 7.7430224419 9.3469829559 8.1424779892
          3.0803859234 3.0808234215 1.3734203577 0.70466756821 0.87847101688 1.22649014
          1.8226715326 3.8368046284 8.5788965225 7.6808772087 1.8760772943 0.93516051769
          0.85442167521 0.98376220465 1.403162241 2.7998569012 4.6763906479 5.8648643494
          7.1379523277 6.7560873032 5.3104839325 1.2846608162 1.4220099449 2.7327759266
          7.8098187447 4.4957051277 3.0854902267 3.9513280392 3.9214160442 4.246696949
          6.7164936066 4.2521710396 2.9484176636 2.3773989677 1.8903582096 1.9635455608
          2.1289963722 2.3161394596 2.3851258755 2.6816699505 2.9154894352 4.0290737152
          5.2931442261 6.1569104195 7.6375579834 6.5762047768 6.7522406578 6.2820487022
          7.4929757118 6.2685399055 6.0750961304 3.7762172222 2.6100788116 2.1788401604
          1.343277216 0.2679463923 1.3829780817 1.377638936 2.0434780121 3.2750887871
          4.6912841797 3.4723801613 5.8155994415 6.217353344 7.5807747841 6.0649051666
          6.2549462318 7.6108999252 6.4622912407 8.0949525833 6.8260922432 7.9340701103
          6.7517523766 5.6393556595 7.8466701508 5.4545993805 4.0638642311 7.4409060478
          6.1282453537 4.0141143799 7.8436646461 5.8471522331 6.7996101379 4.5052599907
          2.9997313023 7.5440826416 6.8798794746 6.3000855446 5.2955851555 8.5343475342
          7.6905608177 6.9847044945 6.9628744125 7.579117775 5.7345600128 4.3498735428
          3.6749508381 3.6678082943 5.9623761177 3.5252578259 4.1896252632 4.5948309898
          6.8203225136 5.8018093109 6.5954351425 7.2940330505 6.9918775558 7.3734068871
          5.9169888496 5.6802983284 5.5006146431 6.1501126289 6.0872058868 6.4661002159
          5.4859423637 4.2015323639 3.740111351 1.9535208941 1.7172679901 3.1131446362
          2.6402957439 2.6346461773 2.7726335526 4.5081057549 3.4446487427 4.6223869324
          5.8050103188 5.9775156975 5.7702350616 5.9419150352 5.7642960548 3.7470948696
          7.7145266533 8.6312379837 5.1274170876 4.8553442955 6.8688249588 4.5606169701
          5.1916851997 5.2730712891 2.6787650585 5.3537425995 5.4149565697 2.6971848011
          4.6587076187 6.6230921745 5.7641310692 7.4193053246 5.7732906342 5.8357100487
          7.3816242218 6.6268463135 6.5014743805 5.676876545 5.1547374725 5.4808282852
          5.2091822624 5.0966148376 5.9973464012 5.5062060356 7.0416560173 0.26326808333
          0.44242563844 1.1654919386 8.0269546509 7.521021843 6.8657531738 6.5150671005
          6.1604013443 5.491771698 2.2704970837 5.0454545021 5.7218017578 5.7878713608
          5.6500835419 4.2522449493 8.0325708389 4.731906414 2.7864460945 6.8095030785
          4.6385908127
        </DataArray>
      </PointData>
      <CellData>
      </CellData>
      <Points>
        <DataArray type="Float32" Name="Points" NumberOfComponents="3" format="ascii" RangeMin="10" RangeMax="69.009145788">
          10 10 0 10 -10 0
          10 -10 10 10 10 10
          -10 10 0 -10 10 10
          -10 -10 0 -10 -10 10
          -65.286003113 -20 0 -45.825759888 -20 0
          -45.825759888 -20 10 -65.286003113 -20 10
          -65.286003113 15 0 -65.286003113 15 10
          -47.696956635 15 0 -47.696956635 15 10
          47.696956635 15 0 47.696956635 15 10
          65.286003113 15 0 65.286003113 15 10
          65.286003113 -20 0 65.286003113 -20 10
          45.825759888 -20 0 45.825759888 -20 10
          10 0 0 10 0 10
          0 10 0 0 10 10
          -10 0 0 -10 0 10
          0 -10 0 0 -10 10
          -65.286003113 -8.3333339691 0 -65.286003113 3.3333334923 0
          -65.286003113 3.3333334923 10 -65.286003113 -8.3333339691 10
          42.418079376 26.470855713 0 34.433826447 36.253433228 0
          24.253423691 43.723808289 0 12.526164055 48.405529022 0
          3.061617105e-15 50 0 -12.526164055 48.405529022 0
          -24.253423691 43.723808289 0 -34.433826447 36.253433228 0
          -42.418079376 26.470855713 0 42.418079376 26.470855713 10
          34.433826447 36.253433228 10 24.253423691 43.723808289 10
          12.526164055 48.405529022 10 3.061617105e-15 50 10
          -12.526164055 48.405529022 10 -24.253423691 43.723808289 10
          -34.433826447 36.253433228 10 -42.418079376 26.470855713 10
          65.286003113 -8.3333339691 0 65.286003113 3.3333334923 0
          65.286003113 -8.3333339691 10 65.286003113 3.3333334923 10
          -39.217941284 -31.015367508 0 -30.021717072 -39.983703613 0
          -18.844041824 -46.313091278 0 -6.4226465225 -49.585781097 0
          6.4226465225 -49.585781097 0 18.844041824 -46.313091278 0
          30.021717072 -39.983703613 0 39.217941284 -31.015367508 0
          -39.217941284 -31.015367508 10 -30.021717072 -39.983703613 10
          -18.844041824 -46.313091278 10 -6.4226465225 -49.585781097 10
          6.4226465225 -49.585781097 10 18.844041824 -46.313091278 10
          30.021717072 -39.983703613 10 39.217941284 -31.015367508 10
          -29.616384506 -24.134590149 10 -36.687141418 -13.420768738 10
          -50.999771118 -9.8844385147 10 -21.46434021 -33.772315979 10
          -12.422431946 -37.871730804 10 -2.8321137428 -36.393333435 10
          8.4611759186 -35.200702667 10 19.062950134 -33.937801361 10
          26.2605896 -26.683101654 10 34.75120163 -20.76568985 10
          52.709178925 -7.8739709854 10 39.109962463 -11.982073784 10
          51.342559814 4.8626270294 10 33.123054504 20.372514725 10
          38.025665283 9.131937027 10 25.90136528 30.73469162 10
          16.514965057 34.661895752 10 5.9759407043 36.955722809 10
          -4.5423107147 36.570430756 10 -14.476904869 36.547481537 10
          -22.231651306 30.863380432 10 -31.017688751 25.975046158 10
          -34.862968445 17.039600372 10 -52.951477051 2.8022372723 10
          -39.956336975 7.6337532997 10 -1.0289134979 -23.078239441 10
          12.467216492 -21.742271423 10 24.993703842 -13.647993088 10
          21.940404892 -3.3307871819 10 -21.869897842 0.54492837191 10
          -22.974290848 -11.261487961 10 -14.331619263 -23.980308533 10
          -9.8880777359 23.434122086 10 -21.441566467 18.767402649 10
          -26.771030426 8.6045446396 10 1.6088008881 23.49889946 10
          24.391946793 8.0296602249 10 20.2846241 20.304773331 10
          10.886460304 24.561210632 10 -36.665836334 -2.5350797176 10
          36.567493439 -1.9697728157 10 -29.937271118 -24.693220139 0
          -37.784507751 -13.40375042 0 -52.333740234 -8.0482244492 0
          -21.367843628 -33.879234314 0 -12.207093239 -37.87443924 0
          -2.4100203514 -36.016590118 0 8.9899120331 -35.115364075 0
          19.654403687 -34.153217316 0 26.610923767 -26.198703766 0
          34.2721138 -20.11006546 0 -51.217037201 4.7723956108 0
          -37.97706604 9.0184669495 0 -33.032829285 20.385753632 0
          33.497314453 20.985754013 0 39.303462982 9.2930335999 0
          52.833637238 3.1416871548 0 25.697011948 30.881902695 0
          15.629559517 34.072029114 0 4.8562092781 36.324455261 0
          -5.8156452179 37.081420898 0 -15.838466644 36.974761963 0
          -24.192565918 30.080183029 0 51.356719971 -9.5306835175 0
          38.14509964 -11.717510223 0 0.62704348564 -22.052330017 0
          14.450199127 -22.408161163 0 23.702438354 -11.202346802 0
          22.047794342 1.0933430195 0 26.409629822 10.281358719 0
          19.786275864 20.767303467 0 8.1346321106 22.660615921 0
          -2.5339281559 23.531515121 0 -12.76366806 25.340272903 0
          -20.834341049 18.296068192 0 -24.573856354 7.4564843178 0
          -21.815958023 -3.4819042683 0 -24.434268951 -13.577003479 0
          -13.790426254 -24.184972763 0 -36.505950928 -2.4232628345 0
          36.716957092 -1.3697654009 0 10 5 0
          10 -5 0 10 -10 5
          10 5 10 10 -5 10
          10 10 5 -5 10 0
          5 10 0 -5 10 10
          5 10 10 -10 10 5
          -10 -5 0 -10 5 0
          -10 -5 10 -10 5 10
          -10 -10 5 5 -10 0
          -5 -10 0 5 -10 10
          -5 -10 10 -55.555877686 -20 0
          -45.825759888 -20 5 -55.555877686 -20 10
          -65.286003113 -20 5 -65.286003113 -14.166667938 0
          -65.286003113 -2.5 0 -65.286003113 9.1666660309 0
          -65.286003113 9.1666660309 10 -65.286003113 -2.5 10
          -65.286003113 -14.166667938 10 -65.286003113 15 5
          -56.491477966 15 0 -56.491477966 15 10
          -47.696956635 15 5 45.421089172 20.902740479 0
          38.736011505 31.615203857 0 29.580400467 40.311286926 0
          18.538181305 46.43636322 0 6.3136191368 49.599781036 0
          -6.3136191368 49.599781036 0 -18.538181305 46.43636322 0
          -29.580400467 40.311286926 0 -38.736011505 31.615203857 0
          -45.421089172 20.902740479 0 45.421089172 20.902740479 10
          38.736011505 31.615203857 10 29.580400467 40.311286926 10
          18.538181305 46.43636322 10 6.3136191368 49.599781036 10
          -6.3136191368 49.599781036 10 -18.538181305 46.43636322 10
          -29.580400467 40.311286926 10 -38.736011505 31.615203857 10
          -45.421089172 20.902740479 10 47.696956635 15 5
          56.491477966 15 0 56.491477966 15 10
          65.286003113 15 5 65.286003113 -14.166667938 0
          65.286003113 -2.5 0 65.286003113 9.1666660309 0
          65.286003113 -14.166667938 10 65.286003113 -2.5 10
          65.286003113 9.1666660309 10 65.286003113 -20 5
          55.555877686 -20 0 55.555877686 -20 10
          45.825759888 -20 5 -42.877059937 -25.720766068 0
          -34.9090271 -35.796085358 0 -24.636981964 -43.508838654 0
          -12.738877296 -48.34998703 0 -1.9142842964e-14 -50 0
          12.738877296 -48.34998703 0 24.636981964 -43.508838654 0
          34.9090271 -35.796085358 0 42.877059937 -25.720766068 0
          -42.877059937 -25.720766068 10 -34.9090271 -35.796085358 10
          -24.636981964 -43.508838654 10 -12.738877296 -48.34998703 10
          -1.9142842964e-14 -50 10 12.738877296 -48.34998703 10
          24.636981964 -43.508838654 10 34.9090271 -35.796085358 10
          42.877059937 -25.720766068 10 10 5 5
          10 -5 5 10 0 5
          -5 10 5 5 10 5
          0 10 5 -10 -5 5
          -10 5 5 -10 0 5
          5 -10 5 -5 -10 5
          0 -10 5 -55.555877686 -20 5
          -65.286003113 -14.166667938 5 -65.286003113 -8.3333339691 5
          -65.286003113 -2.5 5 -65.286003113 3.3333334923 5
          -65.286003113 9.1666660309 5 -56.491477966 15 5
          45.421089172 20.902740479 5 42.418079376 26.470855713 5
          38.736011505 31.615203857 5 34.433826447 36.253433228 5
          29.580400467 40.311286926 5 24.253423691 43.723808289 5
          18.538181305 46.43636322 5 12.526164055 48.405529022 5
          6.3136191368 49.599781036 5 -8.0406135648e-15 50 5
          -6.3136191368 49.599781036 5 -12.526164055 48.405529022 5
          -18.538181305 46.43636322 5 -24.253423691 43.723808289 5
          -29.580400467 40.311286926 5 -34.433826447 36.253433228 5
          -38.736011505 31.615203857 5 -45.421089172 20.902740479 5
          -42.418079376 26.470855713 5 56.491477966 15 5
          65.286003113 -14.166667938 5 65.286003113 -2.5 5
          65.286003113 -8.3333339691 5 65.286003113 9.1666660309 5
          65.286003113 3.3333334923 5 55.555877686 -20 5
          -42.877059937 -25.720766068 5 -39.217941284 -31.015367508 5
          -34.9090271 -35.796085358 5 -30.021717072 -39.983703613 5
          -24.636981964 -43.508838654 5 -18.844041824 -46.313091278 5
          -12.738877296 -48.34998703 5 -6.4226465225 -49.585781097 5
          -1.9142842964e-14 -50 5 6.4226465225 -49.585781097 5
          12.738877296 -48.34998703 5 18.844041824 -46.313091278 5
          24.636981964 -43.508838654 5 30.021717072 -39.983703613 5
          34.9090271 -35.796085358 5 42.877059937 -25.720766068 5
          39.217941284 -31.015367508 5 -34.417163849 -27.574979782 10
          -37.721069336 -22.067296982 10 -29.819049835 -32.059146881 10
          -20.154190063 -40.042701721 10 -25.743028641 -36.878009796 10
          -9.422539711 -43.728752136 10 -15.633235931 -42.092407227 10
          1.7952666283 -42.989555359 10 -4.6273798943 -42.989555359 10
          13.652608871 -40.756896973 10 7.4419112206 -42.393241882 10
          24.542333603 -36.96075058 10 18.953495026 -40.12544632 10
          32.739265442 -28.849235535 10 28.141153336 -33.333400726 10
          40.288482666 -20.382844925 10 36.984573364 -25.890529633 10
          58.997589111 -13.93698597 10 49.267467499 -13.93698597 10
          58.997589111 -8.1036520004 10 58.997589111 -2.270318985 10
          58.314281464 9.9313144684 10 58.314281464 4.0979800224 10
          49.519760132 9.9313144684 10 37.770565033 23.421686172 10
          40.410003662 17.686256409 10 33.778442383 28.312973022 10
          25.077396393 37.229251862 10 30.167596817 33.494064331 10
          14.520564079 41.533714294 10 20.384195328 39.19285202 10
          2.9879703522 43.477863312 10 9.2510528564 42.680625916 10
          -8.5342378616 42.487979889 10 -2.2711553574 43.28521347 10
          -19.365163803 40.13564682 10 -13.501534462 42.47650528 10
          -28.332738876 33.55840683 10 -23.242538452 37.29359436 10
          -36.717884064 26.222951889 10 -32.725757599 31.114242554 10
          -41.279964447 16.019800186 10 -38.640525818 21.75522995 10
          -59.118736267 8.9011182785 10 -50.32421875 8.9011182785 10
          -59.118736267 3.0677852631 10 -59.118736267 -2.7655482292 10
          -58.142883301 -14.942218781 10 -58.142883301 -9.1088857651 10
          -48.412761688 -14.942218781 10 4.485543251 -16.53911972 10
          11.233608246 -15.871134758 10 -5.514456749 -16.53911972 10
          -0.51445674896 -16.53911972 10 -15.934949875 -4.7275357246 10
          -16.48714447 -10.630744934 10 -15.934949875 5.2724642754 10
          -15.934949875 0.27246418595 10 -4.944038868 16.717060089 10
          -9.9440393448 16.717060089 10 5.804400444 16.749448776 10
          0.80440044403 16.749448776 10 17.195972443 4.0148301125 10
          17.195972443 9.0148296356 10 15.970202446 -6.6653938293 10
          15.970202446 -1.6653935909 10 -33.151763916 -18.777679443 10
          -41.256450653 -16.710384369 10 -25.540361404 -28.953454971 10
          -16.943386078 -35.822021484 10 -7.6272730827 -37.132530212 10
          2.8145313263 -35.797019958 10 13.762063026 -34.569252014 10
          22.661769867 -30.3104496 10 30.505897522 -23.724395752 10
          42.467857361 -15.991038322 10 36.930583954 -16.373882294 10
          45.909568787 -9.9280223846 10 52.025867462 -1.505671978 10
          42.861312866 12.065968513 10 44.684112549 6.9972820282 10
          35.574356079 14.752225876 10 29.512207031 25.553604126 10
          21.208162308 32.698295593 10 11.245451927 35.808807373 10
          0.7168148756 36.763076782 10 -9.5096073151 36.558956146 10
          -18.354278564 33.705432892 10 -26.624670029 28.419212341 10
          -32.940326691 21.507324219 10 -43.826652527 11.316876411 10
          -37.409656525 12.336677551 10 -46.453910828 5.2179956436 10
          -51.975627899 -3.541100502 10 -43.843456268 -11.652603149 10
          5.7191510201 -22.410255432 10 18.730459213 -17.695133209 10
          17.496850967 -11.823996544 10 -12.165808678 -16.990152359 10
          -7.6802659035 -23.529272079 10 -22.422094345 -5.3582801819 10
          -18.652956009 -17.6208992 10 -18.385515213 9.302271843 10
          -24.320465088 4.5747365952 10 -4.1396384239 23.466510773 10
          -15.664823532 21.100761414 10 -15.72078228 14.383701324 10
          10.443229675 17.280605316 10 6.2476305962 24.030054092 10
          23.166175842 2.3494365215 10 22.338285446 14.167217255 10
          15.14231205 15.152386665 10 23.467054367 -8.4893903732 10
          -26.29533577 -17.698040009 10 -29.830715179 -12.341128349 10
          -17.897979736 -28.876312256 10 -21.974000931 -24.057449341 10
          -13.377025604 -30.926017761 10 -8.5818662643 -30.186820984 10
          3.7161312103 -29.139471054 10 -1.9305136204 -29.735786438 10
          15.765081406 -27.840034485 10 10.464196205 -28.471488953 10
          19.363903046 -24.212686539 10 29.87245369 -17.206842422 10
          25.627147675 -20.165548325 10 32.051830292 -12.815032959 10
          44.638336182 -4.9218716621 10 37.838726044 -6.9759230614 10
          43.955024719 1.4464271069 10 37.296577454 3.5810825825 10
          28.757499695 14.201086998 10 31.208808899 8.5807991028 10
          23.09299469 25.519733429 10 26.703838348 20.33864212 10
          18.399793625 27.483333588 10 8.4312009811 30.758466721 10
          13.700713158 29.611553192 10 -1.4667549133 30.034664154 10
          3.7923705578 30.227310181 10 -12.182491302 29.990802765 10
          -7.2151947021 30.00227356 10 -16.059864044 27.148752213 10
          -26.229627609 22.371225357 10 -21.836608887 24.815391541 10
          -28.152267456 17.903501511 10 -33.363685608 8.1191492081 10
          -30.817001343 12.822072983 10 -44.8086586 0.13357871771 10
          -38.311088562 2.5493369102 10 -43.832801819 -6.2097592354 10
          -36.676490784 -7.9779243469 10 -29.267868042 -0.99507570267 10
          -29.820062637 -6.8982844353 10 -24.106300354 13.685974121 10
          -31.718437195 3.0347325802 10 15.585542679 22.432991028 10
          29.253948212 -2.6502799988 10 30.479719162 3.0299437046 10
          30.780597687 -7.8088827133 10 -34.577606201 -27.854293823 0
          -37.881515503 -22.346609116 0 -29.979496002 -32.338459015 0
          -20.10594368 -40.096160889 0 -25.69478035 -36.931465149 0
          -9.3148698807 -43.730110168 0 -15.525568008 -42.093765259 0
          2.006313324 -42.801185608 0 -4.4163331985 -42.801185608 0
          13.916976929 -40.714225769 0 7.7062792778 -42.350574493 0
          24.838062286 -37.068458557 0 19.249223709 -40.233154297 0
          32.914432526 -28.607034683 0 28.316322327 -33.091201782 0
          40.048934937 -20.055034637 0 36.745025635 -25.56271553 0
          -49.079750061 -14.024112701 0 -58.809871674 -14.024112701 0
          -58.809871674 -8.1907787323 0 -58.809871674 -2.3574457169 0
          -58.25151825 4.0528640747 0 -58.25151825 9.8861980438 0
          -49.456996918 9.8861980438 0 37.957695007 23.728305817 0
          40.597137451 17.992876053 0 33.965572357 28.619594574 0
          24.975219727 37.302856445 0 30.065420151 33.5676651 0
          14.077861786 41.238780975 0 19.941492081 38.897918701 0
          2.4281046391 43.162227631 0 8.6911869049 42.364990234 0
          -9.1709051132 42.743473053 0 -2.9078226089 43.540706635 0
          -20.045946121 40.34928894 0 -14.182314873 42.6901474 0
          -29.31319809 33.166805267 0 -24.222995758 36.901996613 0
          -37.725456238 23.42830658 0 -33.733325958 28.319591522 0
          -40.364894867 17.692876816 0 50.265304565 9.0708436966 0
          59.059822083 9.0708436966 0 58.321361542 -8.9320077896 0
          58.321361542 -14.765340805 0 59.059822083 3.2375102043 0
          59.059822083 -2.5958230495 0 48.591236115 -14.765340805 0
          0.31352174282 -16.026165009 0 5.3135213852 -16.026165009 0
          -4.686478138 -16.026165009 0 16.023897171 0.54667150974 0
          16.023897171 5.5466709137 0 16.851219177 -10.601173401 0
          16.023897171 -4.4533286095 0 -1.2669640779 16.765758514 0
          -6.2669639587 16.765758514 0 9.067317009 16.330307007 0
          4.0673160553 16.330307007 0 -15.907979012 -1.7409521341 0
          -15.907979012 -6.7409520149 0 -17.286928177 8.7282428741 0
          -17.286928177 3.7282421589 0 -33.86089325 -19.048484802 0
          -41.80513382 -16.701873779 0 -25.652557373 -29.28622818 0
          -16.787467957 -35.876838684 0 -7.3085565567 -36.945514679 0
          3.2899456024 -35.565979004 0 14.32215786 -34.634292603 0
          23.132663727 -30.175962448 0 30.441516876 -23.154382706 0
          41.985427856 -15.858755112 0 36.20860672 -15.913787842 0
          -45.059127808 -10.725988388 0 -51.775390625 -1.6379146576 0
          -44.597053528 6.8954305649 0 -42.837013245 12.009233475 0
          36.400390625 15.13939476 0 43.500209808 12.1465168 0
          29.597164154 25.933828354 0 20.663284302 32.476966858 0
          10.242883682 35.198242188 0 -0.47971817851 36.702934265 0
          -10.827055931 37.028091431 0 -20.015516281 33.52747345 0
          -28.612699509 25.232967377 0 -35.504947662 14.702110291 0
          46.068553925 6.2173604965 0 52.095184326 -3.1944980621 0
          44.750907898 -10.624095917 0 7.5386214256 -22.23024559 0
          12.225099564 -16.204082489 0 -11.895213127 -17.092487335 0
          -6.5816917419 -23.118652344 0 22.875116348 -5.0545024872 0
          24.228713989 5.68735075 0 18.204814911 10.140678406 0
          19.076320648 -16.805253983 0 2.800352335 23.096065521 0
          -7.6487979889 24.435894012 0 -11.38183403 17.670137405 0
          14.893138885 15.383649826 0 13.960453033 21.71395874 0
          -23.194906235 1.9872903824 0 -23.125114441 -8.5294532776 0
          -17.217136383 -11.78850174 0 -15.417170525 14.148034096 0
          -22.704097748 12.87627697 0 -27.185768127 -19.135110855 0
          -31.109388351 -13.490376472 0 -17.579133987 -29.032104492 0
          -21.86384964 -24.439096451 0 -12.998760223 -31.029705048 0
          -8.1002235413 -30.100782394 0 4.8084774017 -28.583847046 0
          -0.89148831367 -29.034460068 0 17.052303314 -28.28068924 0
          11.72005558 -28.761764526 0 20.53055954 -24.303432465 0
          28.987276077 -15.656206131 0 25.156681061 -18.700525284 0
          30.923768997 -11.459928513 0 -37.14522934 -7.9135065079 0
          -44.419845581 -5.2357435226 0 -43.861495972 1.1745662689 0
          -37.241508484 3.2976019382 0 29.953472137 15.633556366 0
          32.856544495 9.7871961594 0 22.741643906 25.824602127 0
          26.641796112 20.876525879 0 17.707918167 27.419664383 0
          6.4954214096 29.49253273 0 11.882095337 28.366321564 0
          -4.1747870445 30.306468964 0 1.1611404419 29.92798233 0
          -14.301067352 31.157516479 0 -9.2896566391 31.210845947 0
          -18.478118896 27.710227966 0 -26.933584213 19.340911865 0
          -22.513454437 24.18812561 0 -31.275463104 8.2374753952 0
          -28.803340912 13.921118736 0 38.010211945 3.9616343975 0
          44.775299072 0.88596093655 0 44.036842346 -5.4502243996 0
          37.431026459 -6.5436372757 0 -19.112348557 -18.880989075 0
          30.209697723 -6.2860565186 0 29.382377625 -0.138211146 0
          31.563293457 4.4557962418 0 23.097953796 15.524330139 0
          -16.799005508 21.818170547 0 -30.539901733 2.5166108608 0
          -29.160955429 -2.9525837898 0 -30.470108032 -8.0001325607 0
          16.023897171 0.54667150974 5 15.970202446 -6.6653938293 5
          16.023897171 5.5466709137 5 15.970202446 -1.6653935909 5
          -1.2669640779 16.765758514 5 9.067317009 16.330307007 5
          4.0673160553 16.330307007 5 -6.2669639587 16.765758514 5
          -15.907979012 -1.7409521341 5 -15.934949875 5.2724642754 5
          -15.907979012 -6.7409520149 5 -15.934949875 0.27246418595 5
          0.31352174282 -16.026165009 5 -5.514456749 -16.53911972 5
          5.3135213852 -16.026165009 5 -0.51445674896 -16.53911972 5
          -58.142883301 -14.942218781 5 -48.412761688 -14.942218781 5
          -58.142883301 -9.1088857651 5 -59.118736267 3.0677852631 5
          -59.118736267 -2.7655482292 5 -59.118736267 8.9011182785 5
          -49.456996918 9.8861980438 5 -58.25151825 9.8861980438 5
          37.957695007 23.728305817 5 33.965572357 28.619594574 5
          24.975219727 37.302856445 5 20.384195328 39.19285202 5
          14.520564079 41.533714294 5 9.2510528564 42.680625916 5
          2.9879703522 43.477863312 5 -9.1709051132 42.743473053 5
          -20.045946121 40.34928894 5 -29.31319809 33.166805267 5
          -32.725757599 31.114242554 5 -36.717884064 26.222951889 5
          -41.279964447 16.019800186 5 40.597137451 17.992876053 5
          30.167596817 33.494064331 5 -2.9078226089 43.540706635 5
          -14.182314873 42.6901474 5 -24.222995758 36.901996613 5
          -38.640525818 21.75522995 5 58.314281464 9.9313144684 5
          49.519760132 9.9313144684 5 58.997589111 -8.1036520004 5
          58.997589111 -13.93698597 5 58.997589111 -2.270318985 5
          59.059822083 9.0708436966 5 59.059822083 3.2375102043 5
          48.591236115 -14.765340805 5 58.321361542 -14.765340805 5
          -34.577606201 -27.854293823 5 -29.979496002 -32.338459015 5
          -20.10594368 -40.096160889 5 -9.3148698807 -43.730110168 5
          2.006313324 -42.801185608 5 13.916976929 -40.714225769 5
          24.838062286 -37.068458557 5 32.914432526 -28.607034683 5
          40.288482666 -20.382844925 5 -37.881515503 -22.346609116 5
          -25.743028641 -36.878009796 5 -15.633235931 -42.092407227 5
          -4.6273798943 -42.989555359 5 7.4419112206 -42.393241882 5
          18.953495026 -40.12544632 5 28.141153336 -33.333400726 5
          36.984573364 -25.890529633 5 -29.776828766 -24.413906097 5
          52.03294754 -8.7023277283 5 52.088096619 4.0021572113 5
          33.310180664 20.679134369 5 -5.1789784431 36.82592392 5
          -15.15768528 36.761123657 5 -23.212108612 30.471780777 5
          -52.084259033 3.7873163223 5 -0.20093503594 -22.565284729 5
          -21.842927933 -1.4684878588 5 -6.2110033035 23.482818604 5
          4.8717169762 23.07975769 5 23.219871521 4.561501503 5
          -33.312210083 -19.056995392 5 -25.700805664 -29.232767105 5
          -21.416091919 -33.825775146 5 -16.895137787 -35.875480652 5
          -12.314763069 -37.873085022 5 -7.5196032524 -37.133888245 5
          -2.6210668087 -36.204963684 5 3.025578022 -35.608650208 5
          8.7255439758 -35.158035278 5 14.026431084 -34.526580811 5
          19.358675003 -34.045509338 5 22.95749855 -30.4181633 5
          26.435756683 -26.44090271 5 30.681064606 -23.482198715 5
          42.467857361 -15.991038322 5 45.233345032 -10.756379128 5
          52.771408081 -2.3661417961 5 45.323009491 7.0778303146 5
          43.500209808 12.1465168 5 38.66456604 9.2124853134 5
          35.761489868 15.058846474 5 29.69934082 25.86022377 5
          25.799188614 30.808296204 5 21.105987549 32.771900177 5
          5.4160747528 36.640087128 5 2.4281046391 43.162227631 5
          0.15694923699 36.447441101 5 -10.146274567 36.814453125 5
          -19.035057068 33.919075012 5 -27.605129242 28.027614594 5
          -32.025257111 23.180400848 5 -37.725456238 23.42830658 5
          -33.947898865 18.712677002 5 -36.420017242 13.029033661 5
          -42.837013245 12.009233475 5 -38.966705322 8.3261098862 5
          -45.586685181 6.2030744553 5 -52.642612457 -2.6229934692 5
          -58.809871674 -8.1907787323 5 -51.666755676 -8.9663314819 5
          -44.39213562 -11.644094467 5 -41.80513382 -16.701873779 5
          -37.2358284 -13.412261009 5 6.547129631 -21.89730072 5
          -12.165808678 -16.990152359 5 -22.395124435 -7.371696949 5
          -23.221876144 4.0007066727 5 -17.286928177 8.7282428741 5
          -25.67244339 8.0305156708 5 -0.46256363392 23.515207291 5
          -15.417170525 14.148034096 5 -15.361208916 20.865095139 5
          -21.137954712 18.531734467 5 9.5105466843 23.610912323 5
          21.994102478 -1.1187220812 5 14.893138885 15.383649826 5
          22.089111328 14.398479462 5 20.035449982 20.536037445 5
          22.821422577 -7.2665672302 5 16.851219177 -10.601173401 5
          24.348070145 -12.425169945 5 -30.560705185 -13.498887062 5
          -27.025327682 -18.855796814 5 -23.704278946 -12.419246674 5
          -22.13444519 -24.336761475 5 -17.849733353 -28.929769516 5
          -13.106430054 -31.02835083 5 -8.3112697601 -30.289154053 5
          -14.061022758 -24.082639694 5 -1.7194669247 -29.54741478 5
          11.455687523 -28.804433823 5 16.756574631 -28.172981262 5
          13.458707809 -22.075216293 5 20.355396271 -24.545631409 5
          25.802310944 -19.923347473 5 34.511657715 -20.437877655 5
          36.691036224 -16.046070099 5 29.632907867 -16.87902832 5
          43.962104797 -5.7502279282 5 44.700565338 0.58595722914 5
          37.93547821 3.6616306305 5 32.217647552 9.7066478729 5
          29.766342163 15.326936722 5 25.400789261 9.1555089951 5
          26.890972137 20.645265579 5 22.843820572 25.750997543 5
          18.150619507 27.714597702 5 16.07226181 34.366966248 5
          10.802749634 35.513877869 5 13.258009911 29.316619873 5
          3.2325053215 29.9116745 5 -8.6529884338 30.955352783 5
          -13.620285988 30.943878174 5 -11.325872421 24.387197495 5
          -17.497657776 28.101827621 5 -22.8170681 24.423789978 5
          -27.237197876 19.576576233 5 -32.37405014 8.8115053177 5
          -43.941440582 1.1186578274 5 -44.499794006 -5.2916526794 5
          -37.22517395 -7.9694156647 5 4.5441098213 -28.62651825 5
          18.084827423 -16.472309113 5 -16.48714447 -10.630744934 5
          -7.4096698761 -23.631607056 5 -29.240898132 -3.008491993 5
          -23.007713318 13.111943245 5 -29.187923431 -0.93916720152 5
          -31.638490677 3.0906412601 5 -36.585891724 -2.4791715145 5
          -3.5381195545 30.050971985 5 -17.102619171 22.053836823 5
          14.209629059 21.482694626 5 7.8713350296 30.442829132 5
          29.307641983 -0.43821486831 5 23.347127914 15.293065071 5
          30.134963989 -6.586060524 5 -19.382944107 -18.778656006 5
          -36.596549988 -7.9220161438 5 -29.740119934 -6.8423757553 5
          19.721950531 -18.028076172 5 31.569400787 -12.682751656 5
          38.627532959 -11.84979248 5 37.356296539 -6.8436412811 5
          36.642223358 -1.6697690487 5 37.371311188 3.8810861111 5
          30.554450989 3.3299472332 5 15.336368561 22.664253235 5
          -29.901927948 14.495149612 5 -37.321453094 3.2416934967 5
          -43.826652527 11.316876411 5 -2.2711553574 43.28521347 5
          -13.501534462 42.47650528 5 -23.242538452 37.29359436 5
          11.233608246 -15.871134758 5 17.195972443 9.0148296356 5
          0.80440044403 16.749448776 5 -9.9440393448 16.717060089 5
          -43.752857208 -6.1538505554 5 -38.231147766 2.6052453518 5
          20.765460968 32.403362274 5 -25.926015854 22.135559082 5
          44.029754639 1.7464306355 5 44.713062286 -4.6218681335 5
          37.913459778 -6.6759195328 5 10.728563309 -28.428819656 5
          12.225099564 -16.204082489 5 29.328681946 -2.3502764702 5
          -7.8518624306 30.257770538 5 -23.802684784 13.450306892 5
          -21.532995224 24.579725266 5
        </DataArray>
      </Points>
      <Cells>
        <DataArray type="Int32" Name="connectivity" format="ascii" RangeMin="0" RangeMax="852">
          24 0 25 142 155 241
          243 515 516 620 1 25
          2 102 242 159 157 621
          368 367 3 25 0 142
          158 241 160 622 620 516
          25 1 24 102 242 156
          243 368 621 623 26 4
          27 146 161 244 246 519
          520 624 0 27 3 145
          245 164 160 521 626 625
          5 27 4 146 163 244
          165 627 624 520 27 0
          26 145 245 162 246 626
          521 522 28 6 29 150
          166 247 249 523 524 628
          4 29 5 103 248 169
          165 629 360 359 7 29
          6 150 168 247 170 630
          628 524 29 4 28 103
          248 167 249 360 629 631
          30 1 31 139 171 250
          252 512 513 632 6 31
          7 99 251 174 170 633
          356 355 2 31 1 139
          173 250 157 634 632 513
          31 6 30 99 251 172
          252 356 633 635 8 11
          9 76 178 253 175 636
          350 637 9 11 10 76
          253 177 176 637 350 352
          32 35 8 76 255 254
          179 638 351 636 33 34
          32 97 257 256 180 639
          348 640 33 12 34 97
          181 258 257 639 641 348
          8 35 11 76 254 184
          178 636 351 350 13 34
          12 97 182 258 185 346
          348 641 35 32 34 97
          255 256 183 349 640 348
          14 15 12 125 188 259
          186 486 642 485 12 15
          13 125 259 187 185 485
          642 643 45 36 16 128
          261 189 260 644 487 488
          46 37 36 128 263 190
          262 645 489 487 47 38
          37 131 265 191 264 646
          490 491 48 39 38 90
          267 192 266 332 648 647
          49 40 39 91 269 193
          268 334 650 649 50 41
          40 134 271 194 270 651
          496 497 51 42 41 135
          273 195 272 652 498 499
          52 43 42 136 275 196
          274 653 500 501 53 44
          43 95 278 197 276 342
          655 654 15 14 53 96
          188 277 208 344 656 345
          16 17 45 128 209 199
          260 488 657 644 36 45
          46 128 261 200 262 487
          644 645 37 46 47 89
          263 201 264 658 331 330
          38 47 48 90 265 202
          266 647 333 332 39 48
          49 91 267 203 268 649
          335 334 40 49 50 134
          269 204 270 497 659 651
          41 50 51 135 271 205
          272 499 660 652 42 51
          52 136 273 206 274 501
          661 653 43 52 53 95
          275 207 276 654 343 342
          44 53 14 96 278 277
          198 662 345 656 18 19
          16 86 212 279 210 663
          324 664 16 19 17 86
          279 211 209 664 324 326
          54 20 56 84 213 280
          282 665 666 322 55 54
          57 84 214 281 284 667
          665 323 18 57 19 130
          283 218 212 506 669 668
          21 56 20 84 216 280
          219 320 322 666 56 57
          54 84 217 281 282 322
          323 665 57 18 55 130
          283 215 284 669 506 509
          22 23 20 137 222 285
          220 511 670 508 20 23
          21 137 285 221 219 508
          670 671 66 58 9 115
          287 223 286 672 463 464
          67 59 58 115 289 224
          288 673 465 463 68 60
          59 118 291 225 290 674
          466 467 69 61 60 119
          293 226 292 675 468 469
          70 62 61 120 295 227
          294 676 470 471 71 63
          62 121 297 228 296 677
          472 473 72 64 63 122
          299 229 298 678 474 475
          73 65 64 123 302 230
          300 679 476 477 23 22
          73 83 222 301 240 318
          680 319 9 10 66 115
          176 232 286 464 681 672
          58 66 67 115 287 233
          288 463 672 673 59 67
          68 77 289 234 290 682
          307 306 60 68 69 78
          291 235 292 683 309 308
          61 69 70 79 293 236
          294 684 311 310 62 70
          71 80 295 237 296 685
          313 312 63 71 72 81
          297 238 298 686 315 314
          64 72 73 82 299 239
          300 687 317 316 65 73
          22 83 302 301 231 688
          319 680 10 74 66 115
          304 303 232 681 689 672
          66 74 67 115 303 305
          233 672 689 673 23 84
          21 137 321 320 221 670
          690 671 57 86 19 130
          325 324 218 669 691 668
          17 87 45 128 328 327
          199 657 692 644 45 87
          46 128 327 329 200 644
          692 645 49 92 50 134
          337 336 204 659 693 651
          50 93 51 135 339 338
          205 660 694 652 51 94
          52 136 341 340 206 661
          695 653 15 97 13 125
          347 346 187 642 696 643
          2 99 31 139 353 356
          173 634 697 632 7 103
          29 150 357 360 168 630
          698 628 5 106 27 146
          362 361 163 627 699 624
          27 109 3 145 364 363
          164 626 700 625 3 110
          25 142 366 365 158 622
          701 620 10 75 74 115
          370 369 304 681 702 689
          74 77 67 115 371 307
          305 689 703 673 77 78
          68 118 372 309 306 704
          705 674 78 79 69 119
          373 311 308 706 707 675
          79 80 70 120 374 313
          310 708 709 676 80 81
          71 121 375 315 312 710
          711 677 81 82 72 122
          376 317 314 712 713 678
          82 83 73 123 377 319
          316 714 715 679 83 85
          23 22 379 378 318 680
          716 222 23 85 84 137
          378 380 321 670 717 690
          84 86 57 130 381 325
          323 718 691 669 86 88
          17 129 383 382 326 719
          721 720 17 88 87 128
          382 384 328 657 722 692
          87 89 46 128 385 331
          329 692 723 645 89 90
          47 131 386 333 330 724
          725 646 90 91 48 39
          387 335 332 648 649 267
          91 92 49 133 388 337
          334 726 728 727 92 93
          50 134 389 339 336 693
          729 651 93 94 51 135
          390 341 338 694 730 652
          94 95 52 136 391 343
          340 695 731 653 95 96
          53 127 392 345 342 732
          734 733 96 98 15 126
          394 393 344 735 737 736
          15 98 97 125 393 395
          347 642 738 696 97 76
          35 117 396 351 349 739
          741 740 76 75 10 116
          397 370 352 742 744 743
          2 100 99 139 354 398
          353 634 745 697 99 105
          7 6 402 401 355 633
          746 170 7 104 103 150
          358 403 357 630 747 698
          103 108 5 149 406 405
          359 748 750 749 106 109
          27 146 407 364 361 699
          751 624 5 107 106 148
          409 408 362 752 754 753
          109 112 3 145 411 410
          363 700 755 625 110 102
          25 142 412 368 365 701
          756 620 3 111 110 144
          414 413 366 757 759 758
          102 101 2 141 415 400
          367 760 762 761 75 104
          74 151 417 416 369 763
          765 764 74 105 77 115
          419 418 371 689 766 703
          77 105 78 118 418 420
          372 704 767 705 78 105
          79 152 420 421 373 768
          770 769 79 99 80 120
          423 422 374 708 771 709
          80 100 81 140 425 424
          375 772 774 773 81 100
          82 140 424 426 376 773
          774 775 82 101 83 123
          428 427 377 714 776 715
          83 101 85 124 427 429
          379 777 779 778 85 114
          84 137 431 430 380 717
          780 690 84 114 86 130
          430 432 381 718 781 691
          86 114 88 129 432 433
          383 719 782 721 88 110
          87 143 435 434 384 783
          785 784 87 111 89 128
          437 436 385 692 786 723
          89 111 90 144 436 438
          386 787 759 788 90 112
          91 132 440 439 387 789
          791 790 91 109 92 133
          442 441 388 726 792 728
          92 106 93 147 444 443
          389 793 795 794 93 106
          94 147 443 445 390 794
          795 796 94 107 95 136
          447 446 391 695 797 731
          95 107 96 127 446 448
          392 732 798 734 96 108
          98 126 450 449 394 735
          799 737 98 113 97 125
          452 451 395 738 800 696
          97 113 76 117 451 453
          396 739 801 741 76 113
          75 116 453 454 397 742
          802 744 100 80 99 139
          425 422 398 745 803 697
          2 101 100 141 400 399
          354 761 762 804 105 104
          7 6 404 358 401 746
          805 170 99 79 105 152
          423 421 402 806 769 770
          104 113 103 150 456 455
          403 747 807 698 108 107
          5 149 457 409 405 750
          808 749 103 113 108 153
          455 458 406 809 811 810
          106 92 109 146 444 441
          407 699 812 751 107 94
          106 147 447 445 408 813
          796 795 112 111 3 145
          459 414 410 755 814 625
          109 91 112 133 442 439
          411 792 726 815 110 114
          102 142 461 460 412 701
          816 756 111 87 110 143
          437 434 413 817 784 785
          102 114 101 141 460 462
          415 760 818 762 104 105
          74 151 404 419 416 765
          819 764 75 113 104 153
          454 456 417 820 811 821
          100 101 82 140 399 428
          426 774 822 775 101 114
          85 138 462 431 429 823
          825 824 114 110 88 154
          461 435 433 826 828 827
          111 112 90 144 459 440
          438 759 829 788 107 108
          96 127 457 450 448 798
          830 734 108 113 98 126
          458 452 449 799 831 737
          65 22 124 83 231 478
          479 688 680 777 8 9
          117 76 175 480 481 636
          637 741 32 8 117 76
          179 481 482 638 636 741
          33 32 117 97 180 482
          483 639 640 739 12 33
          125 97 181 484 485 641
          639 696 38 39 132 90
          192 492 493 647 648 789
          39 40 133 91 193 494
          495 649 650 726 43 44
          127 95 197 502 503 654
          655 732 44 14 127 96
          198 504 502 662 656 734
          18 16 130 86 210 505
          506 663 664 691 20 54
          137 84 213 507 508 666
          665 690 54 55 130 84
          214 509 510 665 667 718
          30 6 139 99 172 514
          512 635 633 697 24 1
          142 102 156 518 515 623
          621 756 28 4 149 103
          167 525 526 631 629 748
          9 115 116 10 464 527
          528 176 681 743 115 59
          118 77 465 467 529 703
          682 704 118 60 119 78
          466 469 530 705 683 706
          119 61 120 79 468 471
          531 707 684 708 120 62
          121 80 470 473 532 709
          685 710 121 63 122 81
          472 475 533 711 686 712
          122 64 123 82 474 477
          534 713 687 714 123 65
          124 83 476 479 535 715
          688 777 124 22 138 85
          478 536 537 778 716 824
          117 9 116 76 480 528
          538 741 637 742 33 117
          125 97 483 539 484 639
          739 696 14 125 126 98
          486 540 541 832 738 737
          16 128 129 17 488 542
          543 209 657 720 128 37
          131 89 489 491 544 723
          658 724 131 38 132 90
          490 493 545 725 647 789
          132 39 133 91 492 495
          546 790 649 726 133 40
          134 92 494 497 547 728
          833 693 134 41 135 93
          496 499 548 729 834 694
          135 42 136 94 498 501
          549 730 835 695 136 43
          127 95 500 503 550 731
          654 732 127 14 126 96
          504 541 551 734 656 735
          130 16 129 86 505 543
          552 691 664 719 137 54
          130 84 507 510 553 690
          665 718 22 137 138 85
          511 554 536 716 717 824
          1 139 140 100 513 555
          556 836 745 774 139 6
          152 99 514 557 558 697
          633 806 0 142 143 110
          516 560 561 837 701 785
          142 1 141 102 518 517
          559 756 621 760 146 26
          145 109 519 522 563 751
          838 700 4 146 147 106
          520 564 565 839 699 795
          145 0 144 3 521 566
          567 625 160 757 150 28
          149 103 523 526 568 698
          631 748 6 150 151 104
          524 569 570 805 747 765
          149 4 148 5 525 571
          572 749 165 752 116 115
          151 75 527 573 574 744
          702 763 115 118 152 105
          529 575 576 766 767 770
          118 119 152 78 530 577
          575 705 706 768 119 120
          152 79 531 578 577 707
          708 769 120 121 139 80
          532 579 580 709 710 803
          121 122 140 81 533 581
          582 711 712 773 122 123
          140 82 534 583 581 713
          714 775 123 124 141 101
          535 584 585 776 779 762
          124 138 141 101 537 586
          584 779 823 762 117 116
          153 76 538 587 588 741
          742 840 125 117 153 113
          539 588 589 800 801 811
          126 125 153 98 540 589
          590 737 738 841 129 128
          143 88 542 591 592 721
          722 783 128 131 144 89
          544 593 594 723 724 787
          131 132 144 89 545 595
          593 724 842 787 132 133
          145 112 546 596 597 791
          815 755 133 134 146 92
          547 598 599 728 693 812
          134 135 147 93 548 600
          601 729 694 794 135 136
          147 94 549 602 600 730
          695 796 136 127 148 95
          550 603 604 731 732 843
          127 126 149 108 551 605
          606 830 799 750 130 129
          154 86 552 607 608 691
          719 844 137 130 154 84
          553 608 609 690 718 845
          138 137 154 85 554 609
          610 824 717 846 140 139
          121 100 555 579 582 774
          745 847 1 140 141 2
          556 562 517 157 848 761
          152 6 151 105 557 570
          611 770 746 819 139 152
          120 99 558 578 580 697
          806 771 143 142 154 110
          560 613 614 785 701 828
          0 143 144 110 561 615
          566 837 785 758 142 141
          154 102 559 612 613 756
          760 849 146 145 133 109
          563 596 599 751 700 792
          147 146 134 106 564 598
          601 795 699 850 4 147
          148 106 565 616 571 839
          795 753 145 144 132 112
          567 595 597 755 829 791
          150 149 153 103 568 617
          618 698 748 809 151 150
          153 104 569 618 619 765
          747 821 149 148 127 108
          572 603 606 750 851 830
          151 115 152 105 573 576
          611 819 766 770 116 151
          153 75 574 619 587 744
          763 820 140 123 141 101
          583 585 562 822 776 762
          141 138 154 114 586 610
          612 818 825 826 126 153
          149 108 590 617 605 799
          810 750 143 128 144 111
          591 594 615 817 786 759
          129 143 154 88 592 614
          607 721 783 827 147 136
          148 94 602 604 616 796
          695 852 25 24 142 102
          243 515 620 368 623 756
          2 1 102 141 157 621
          367 761 517 760 0 3
          142 110 160 622 516 837
          366 701 27 26 146 109
          246 519 624 364 838 751
          4 5 146 106 165 627
          520 839 362 699 26 27
          145 109 246 626 522 838
          364 700 29 28 150 103
          249 523 628 360 631 698
          5 4 103 149 165 629
          359 749 525 748 6 7
          150 104 170 630 524 805
          358 747 31 30 139 99
          252 512 632 356 635 697
          1 2 139 100 157 634
          513 836 354 745 10 9
          76 116 176 637 352 743
          528 742 32 35 76 117
          255 351 638 482 740 741
          12 13 97 125 185 346
          641 485 643 696 35 32
          97 117 255 640 349 740
          482 739 14 15 125 98
          188 642 486 832 393 738
          46 37 128 89 263 489
          645 331 658 723 37 47
          131 89 264 646 491 658
          330 724 47 38 131 90
          265 490 646 333 647 725
          49 40 91 133 269 650
          334 727 494 726 50 41
          134 93 271 496 651 339
          834 729 51 42 135 94
          273 498 652 341 835 730
          52 43 136 95 275 500
          653 343 654 731 53 44
          95 127 278 655 342 733
          502 732 15 14 96 126
          188 656 344 736 541 735
          40 49 134 92 269 659
          497 833 337 693 41 50
          135 93 271 660 499 834
          339 694 42 51 136 94
          273 661 501 835 341 695
          44 53 96 127 278 345
          662 502 733 734 18 19
          86 130 212 324 663 506
          668 691 17 16 86 129
          209 664 326 720 543 719
          57 55 84 130 284 667
          323 669 509 718 20 21
          84 137 219 320 666 508
          671 690 22 23 137 85
          222 670 511 716 378 717
          67 59 115 77 289 465
          673 307 682 703 59 68
          118 77 290 674 467 682
          306 704 68 60 118 78
          291 466 674 309 683 705
          60 69 119 78 292 675
          469 683 308 706 69 61
          119 79 293 468 675 311
          684 707 61 70 120 79
          294 676 471 684 310 708
          70 62 120 80 295 470
          676 313 685 709 62 71
          121 80 296 677 473 685
          312 710 71 63 121 81
          297 472 677 315 686 711
          63 72 122 81 298 678
          475 686 314 712 72 64
          122 82 299 474 678 317
          687 713 64 73 123 82
          300 679 477 687 316 714
          73 65 123 83 302 476
          679 319 688 715 10 75
          115 116 370 702 681 743
          744 527 75 74 115 151
          369 689 702 763 764 573
          78 79 119 152 373 707
          706 768 769 577 80 81
          121 140 375 711 710 772
          773 582 81 82 122 140
          376 713 712 773 775 581
          83 85 22 124 379 716
          680 777 778 478 88 17
          129 128 382 720 721 722
          657 542 88 87 128 143
          384 692 722 783 784 591
          89 90 131 132 386 725
          724 842 789 545 90 91
          39 132 387 649 648 789
          790 492 92 49 133 40
          337 727 728 833 269 494
          92 93 134 147 389 729
          693 793 794 601 93 94
          135 147 390 730 694 794
          796 600 98 15 126 14
          393 736 737 832 188 541
          99 105 6 152 402 746
          633 806 770 557 103 108
          149 153 406 750 748 809
          810 617 106 5 148 4
          362 752 753 839 165 571
          5 107 148 149 409 754
          752 749 808 572 107 106
          148 147 408 753 754 813
          795 616 109 112 145 133
          411 755 700 792 815 596
          110 3 144 0 366 757
          758 837 160 566 3 111
          144 145 414 759 757 625
          814 567 111 110 144 143
          413 758 759 817 785 615
          75 104 151 153 417 765
          763 820 821 619 74 105
          115 151 419 766 689 764
          819 573 105 77 115 118
          418 703 766 767 704 529
          105 78 118 152 420 705
          767 770 768 575 79 99
          120 152 423 771 708 769
          806 578 99 80 120 139
          422 709 771 697 803 580
          80 100 140 121 425 774
          772 710 847 582 82 101
          123 140 428 776 714 775
          822 583 101 83 123 124
          427 715 776 779 777 535
          101 85 124 138 429 778
          779 823 824 537 85 114
          137 154 431 780 717 846
          826 609 114 84 137 154
          430 690 780 826 845 609
          84 114 130 154 430 781
          718 845 826 608 114 86
          130 154 432 691 781 826
          844 608 86 114 129 154
          432 782 719 844 826 607
          114 88 129 154 433 721
          782 826 827 607 88 110
          143 154 435 785 783 827
          828 614 87 111 128 143
          437 786 692 784 817 591
          111 89 128 144 436 723
          786 759 787 594 90 89
          144 132 386 787 788 789
          842 595 90 112 132 144
          440 791 789 788 829 595
          112 91 132 133 439 790
          791 815 726 546 109 92
          133 146 441 728 792 751
          812 599 92 106 147 134
          444 795 793 693 850 601
          94 107 136 148 447 797
          695 852 754 604 107 95
          136 148 446 731 797 754
          843 604 95 107 127 148
          446 798 732 843 754 603
          96 108 126 127 450 799
          735 734 830 551 98 113
          125 153 452 800 738 841
          811 589 113 97 125 117
          451 696 800 801 739 539
          113 76 117 153 453 741
          801 811 840 588 76 113
          116 153 453 802 742 840
          811 587 113 75 116 153
          454 744 802 811 820 587
          100 80 139 121 425 803
          745 847 710 579 100 2
          141 140 354 761 804 774
          848 562 101 100 141 140
          399 804 762 822 774 562
          105 104 6 151 404 805
          746 819 765 570 104 113
          150 153 456 807 747 821
          811 618 113 103 150 153
          455 698 807 811 809 618
          108 107 149 148 457 808
          750 851 754 572 113 108
          153 126 458 810 811 831
          799 590 106 92 146 134
          444 812 699 850 693 598
          107 94 147 148 447 796
          813 754 852 616 112 111
          145 144 459 814 755 829
          759 567 110 114 142 154
          461 816 701 828 826 613
          114 102 142 154 460 756
          816 826 849 613 102 114
          141 154 460 818 760 849
          826 612 114 101 141 138
          462 762 818 825 823 586
          114 85 138 154 431 824
          825 826 846 610 107 108
          127 148 457 830 798 754
          851 603 113 98 126 153
          452 737 831 811 841 590
          140 1 100 2 556 836
          774 848 157 354
        </DataArray>
        <DataArray type="Int32" Name="offsets" format="ascii" RangeMin="10" RangeMax="3880">
          10 20 30 40 50 60
          70 80 90 100 110 120
          130 140 150 160 170 180
          190 200 210 220 230 240
          250 260 270 280 290 300
          310 320 330 340 350 360
          370 380 390 400 410 420
          430 440 450 460 470 480
          490 500 510 520 530 540
          550 560 570 580 590 600
          610 620 630 640 650 660
          670 680 690 700 710 720
          730 740 750 760 770 780
          790 800 810 820 830 840
          850 860 870 880 890 900
          910 920 930 940 950 960
          970 980 990 1000 1010 1020
          1030 1040 1050 1060 1070 1080
          1090 1100 1110 1120 1130 1140
          1150 1160 1170 1180 1190 1200
          1210 1220 1230 1240 1250 1260
          1270 1280 1290 1300 1310 1320
          1330 1340 1350 1360 1370 1380
          1390 1400 1410 1420 1430 1440
          1450 1460 1470 1480 1490 1500
          1510 1520 1530 1540 1550 1560
          1570 1580 1590 1600 1610 1620
          1630 1640 1650 1660 1670 1680
          1690 1700 1710 1720 1730 1740
          1750 1760 1770 1780 1790 1800
          1810 1820 1830 1840 1850 1860
          1870 1880 1890 1900 1910 1920
          1930 1940 1950 1960 1970 1980
          1990 2000 2010 2020 2030 2040
          2050 2060 2070 2080 2090 2100
          2110 2120 2130 2140 2150 2160
          2170 2180 2190 2200 2210 2220
          2230 2240 2250 2260 2270 2280
          2290 2300 2310 2320 2330 2340
          2350 2360 2370 2380 2390 2400
          2410 2420 2430 2440 2450 2460
          2470 2480 2490 2500 2510 2520
          2530 2540 2550 2560 2570 2580
          2590 2600 2610 2620 2630 2640
          2650 2660 2670 2680 2690 2700
          2710 2720 2730 2740 2750 2760
          2770 2780 2790 2800 2810 2820
          2830 2840 2850 2860 2870 2880
          2890 2900 2910 2920 2930 2940
          2950 2960 2970 2980 2990 3000
          3010 3020 3030 3040 3050 3060
          3070 3080 3090 3100 3110 3120
          3130 3140 3150 3160 3170 3180
          3190 3200 3210 3220 3230 3240
          3250 3260 3270 3280 3290 3300
          3310 3320 3330 3340 3350 3360
          3370 3380 3390 3400 3410 3420
          3430 3440 3450 3460 3470 3480
          3490 3500 3510 3520 3530 3540
          3550 3560 3570 3580 3590 3600
          3610 3620 3630 3640 3650 3660
          3670 3680 3690 3700 3710 3720
          3730 3740 3750 3760 3770 3780
          3790 3800 3810 3820 3830 3840
          3850 3860 3870 3880
        </DataArray>
        <DataArray type="UInt8" Name="types" format="ascii" RangeMin="24" RangeMax="24">
          24 24 24 24 24 24
          24 24 24 24 24 24
          24 24 24 24 24 24
          24 24 24 24 24 24
          24 24 24 24 24 24
          24 24 24 24 24 24
          24 24 24 24 24 24
          24 24 24 24 24 24
          24 24 24 24 24 24
          24 24 24 24 24 24
          24 24 24 24 24 24
          24 24 24 24 24 24
          24 24 24 24 24 24
          24 24 24 24 24 24
          24 24 24 24 24 24
          24 24 24 24 24 24
          24 24 24 24 24 24
          24 24 24 24 24 24
          24 24 24 24 24 24
          24 24 24 24 24 24
          24 24 24 24 24 24
          24 24 24 24 24 24
          24 24 24 24 24 24
          24 24 24 24 24 24
          24 24 24 24 24 24
          24 24 24 24 24 24
          24 24 24 24 24 24
          24 24 24 24 24 24
          24 24 24 24 24 24
          24 24 24 24 24 24
          24 24 24 24 24 24
          24 24 24 24 24 24
          24 24 24 24 24 24
          24 24 24 24 24 24
          24 24 24 24 24 24
          24 24 24 24 24 24
          24 24 24 24 24 24
          24 24 24 24 24 24
          24 24 24 24 24 24
          24 24 24 24 24 24
          24 24 24 24 24 24
          24 24 24 24 24 24
          24 24 24 24 24 24
          24 24 24 24 24 24
          24 24 24 24 24 24
          24 24 24 24 24 24
          24 24 24 24 24 24
          24 24 24 24 24 24
          24 24 24 24 24 24
          24 24 24 24 24 24
          24 24 24 24 24 24
          24 24 24 24 24 24
          24 24 24 24 24 24
          24 24 24 24 24 24
          24 24 24 24 24 24
          24 24 24 24 24 24
          24 24 24 24 24 24
          24 24 24 24 24 24
          24 24 24 24 24 24
          24 24 24 24 24 24
          24 24 24 24 24 24
          24 24 24 24 24 24
          24 24 24 24 24 24
          24 24 24 24 24 24
          24 24 24 24
        </DataArray>
      </Cells>
    </Piece>
  </UnstructuredGrid>
</VTKFile>
