# vtk DataFile Version 4.1
vtk output
ASCII
DATASET UNSTRUCTURED_GRID
POINTS 228 float
8000 1000 0 8000 1000 1000 8000 0 0 
8000 0 1000 0 1000 0 0 1000 1000 
0 0 0 0 0 1000 728 1000 1000 
1456 1000 1000 2184 1000 1000 2912 1000 1000 
3640 1000 1000 4368 1000 1000 5096 1000 1000 
5824 1000 1000 6552 1000 1000 7280 1000 1000 
728 0 1000 1456 0 1000 2184 0 1000 
2912 0 1000 3640 0 1000 4368 0 1000 
5096 0 1000 5824 0 1000 6552 0 1000 
7280 0 1000 728 1000 0 1456 1000 0 
2184 1000 0 2912 1000 0 3640 1000 0 
4368 1000 0 5096 1000 0 5824 1000 0 
6552 1000 0 7280 1000 0 728 0 0 
1456 0 0 2184 0 0 2912 0 0 
3640 0 0 4368 0 0 5096 0 0 
5824 0 0 6552 0 0 7280 0 0 
8000 500 500 0 500 500 4732 500 500 
0 500 1000 364 1000 1000 1092 1000 1000 
1820 1000 1000 2548 1000 1000 3276 1000 1000 
4004 1000 1000 4732 1000 1000 5460 1000 1000 
6188 1000 1000 6916 1000 1000 7640 1000 1000 
8000 500 1000 364 0 1000 1092 0 1000 
1820 0 1000 2548 0 1000 3276 0 1000 
4004 0 1000 4732 0 1000 5460 0 1000 
6188 0 1000 6916 0 1000 7640 0 1000 
0 500 0 364 1000 0 1092 1000 0 
1820 1000 0 2548 1000 0 3276 1000 0 
4004 1000 0 4732 1000 0 5460 1000 0 
6188 1000 0 6916 1000 0 7640 1000 0 
8000 500 0 364 0 0 1092 0 0 
1820 0 0 2548 0 0 3276 0 0 
4004 0 0 4732 0 0 5460 0 0 
6188 0 0 6916 0 0 7640 0 0 
8000 1000 500 0 1000 500 8000 0 500 
0 0 500 364 500 1000 728 500 1000 
1092 500 1000 1456 500 1000 1820 500 1000 
2184 500 1000 2548 500 1000 3276 500 1000 
3640 500 1000 4004 500 1000 4368 500 1000 
4732 500 1000 5096 500 1000 5460 500 1000 
5824 500 1000 6188 500 1000 6552 500 1000 
6916 500 1000 7640 500 1000 2912 500 1000 
7280 500 1000 364 500 0 1092 500 0 
728 500 0 1820 500 0 1456 500 0 
2548 500 0 2184 500 0 3640 500 0 
3276 500 0 4004 500 0 5096 500 0 
4732 500 0 5460 500 0 6188 500 0 
5824 500 0 6916 500 0 6552 500 0 
7640 500 0 2912 500 0 4368 500 0 
7280 500 0 364 1000 500 728 1000 500 
1092 1000 500 1456 1000 500 1820 1000 500 
2184 1000 500 2548 1000 500 3276 1000 500 
3640 1000 500 4004 1000 500 4368 1000 500 
4732 1000 500 5096 1000 500 5460 1000 500 
5824 1000 500 6188 1000 500 6552 1000 500 
6916 1000 500 7640 1000 500 2912 1000 500 
7280 1000 500 364 0 500 1092 0 500 
728 0 500 1820 0 500 1456 0 500 
2548 0 500 2184 0 500 3640 0 500 
3276 0 500 4004 0 500 5096 0 500 
4732 0 500 5460 0 500 6188 0 500 
5824 0 500 6916 0 500 6552 0 500 
7640 0 500 2912 0 500 4368 0 500 
7280 0 500 8000 250 250 8000 250 750 
8000 750 750 8000 750 250 0 250 750 
0 250 250 0 750 250 0 750 750 
1456 500 500 6552 500 500 6916 500 500 
2184 500 500 2548 500 500 2912 500 500 
1820 500 500 7640 750 250 7640 750 750 
7280 500 500 7640 250 250 5460 500 500 
5096 500 500 6188 500 500 5824 500 500 
364 750 250 364 750 750 364 250 250 
1092 500 500 728 500 500 364 250 750 
4550 250 250 4550 750 250 4550 750 750 
4368 500 500 4550 250 750 4914 250 750 
4914 750 750 3276 500 500 3640 500 500 
4004 500 500 4914 750 250 4914 250 250 

CELLS 79 869
10 39 18 9 19 167 105 195 170 65 106 
10 9 30 29 39 149 78 148 195 127 128 
10 37 16 17 46 162 61 165 139 196 197 
10 31 40 10 11 129 198 151 164 199 55 
10 11 31 40 41 164 129 199 200 142 91 
10 41 20 11 21 171 109 200 184 67 122 
10 9 30 39 10 149 127 195 54 150 201 
10 10 11 40 20 55 199 198 108 109 172 
10 19 40 10 39 169 198 107 170 90 201 
10 19 40 20 10 169 172 66 107 198 108 
10 31 10 40 30 151 198 129 79 150 130 
10 10 9 19 39 54 106 107 201 195 170 
10 37 16 46 36 162 196 139 85 161 140 
10 37 17 48 47 165 203 202 144 204 205 
10 45 14 44 35 206 207 95 138 158 136 
10 46 15 45 36 208 209 96 140 160 137 
10 17 3 1 48 121 63 62 203 188 189 
10 17 16 26 46 61 119 120 197 196 182 
10 37 17 47 46 165 204 144 139 197 97 
10 11 22 41 21 110 174 200 122 68 184 
10 25 46 26 16 179 182 72 118 196 119 
10 49 28 8 5 210 146 211 194 145 52 
10 26 47 17 46 181 204 120 182 97 197 
10 7 6 38 49 102 88 166 191 192 212 
10 39 8 38 29 213 214 89 128 147 125 
10 41 20 40 11 171 172 91 200 109 199 
10 49 8 28 38 211 146 210 212 214 126 
10 28 6 49 38 124 192 210 126 88 212 
10 30 10 40 39 150 198 130 127 201 90 
10 46 15 36 16 208 160 140 196 60 161 
10 39 8 29 9 213 147 128 195 53 148 
10 1 37 48 0 163 202 189 99 86 190 
10 1 37 17 48 163 165 62 189 202 203 
10 47 48 37 2 205 202 144 98 187 141 
10 37 48 0 2 202 190 86 141 187 87 
10 48 3 2 47 188 101 187 205 183 98 
10 27 47 3 17 186 183 74 123 204 121 
10 48 17 3 47 203 121 188 205 204 183 
10 6 49 4 28 192 193 75 124 210 76 
10 49 5 4 28 194 100 193 210 145 76 
10 49 8 18 5 211 104 215 194 52 103 
10 49 18 8 38 215 104 211 212 168 214 
10 49 18 7 5 215 64 191 194 103 51 
10 39 8 9 18 213 53 195 167 104 105 
10 50 43 33 13 216 143 217 218 219 155 
10 50 23 43 13 220 185 216 218 113 219 
10 24 14 23 50 115 114 70 221 222 220 
10 42 11 31 12 223 164 132 224 56 152 
10 42 11 22 41 223 110 173 92 200 174 
10 42 11 12 22 223 56 224 173 110 111 
10 42 11 41 31 223 200 92 132 164 142 
10 33 12 13 43 154 57 155 143 225 219 
10 13 23 14 50 113 114 58 218 220 222 
10 22 23 13 43 69 113 112 175 185 219 
10 32 31 12 42 80 152 153 131 132 224 
10 33 32 12 42 81 153 154 133 131 224 
10 34 13 14 50 156 58 157 226 218 222 
10 24 44 14 50 176 207 115 221 227 222 
10 43 42 12 22 93 224 225 175 173 111 
10 34 33 13 50 82 155 156 226 217 218 
10 45 14 35 15 206 158 138 209 59 159 
10 35 34 14 44 83 157 158 136 134 207 
10 36 35 15 45 84 159 160 137 138 209 
10 24 25 15 45 71 117 116 178 180 209 
10 46 15 16 25 208 60 196 179 117 118 
10 46 15 25 45 208 117 179 96 209 180 
10 26 27 17 47 73 123 120 181 186 204 
10 34 33 50 44 82 217 226 134 135 227 
10 12 13 43 22 57 219 225 111 112 175 
10 43 24 23 50 177 70 185 216 221 220 
10 43 44 24 50 94 176 177 216 227 221 
10 45 14 15 24 206 59 209 178 115 116 
10 45 14 24 44 206 115 178 95 207 176 
10 49 7 18 38 191 64 215 212 166 168 
10 34 50 14 44 226 222 157 134 227 207 
10 33 43 42 12 143 93 133 154 225 224 
10 50 43 44 33 216 94 227 217 143 135 
10 8 28 38 29 146 126 214 147 77 125 
10 39 8 18 38 213 104 167 89 214 168 

CELL_TYPES 79
24
24
24
24
24
24
24
24
24
24
24
24
24
24
24
24
24
24
24
24
24
24
24
24
24
24
24
24
24
24
24
24
24
24
24
24
24
24
24
24
24
24
24
24
24
24
24
24
24
24
24
24
24
24
24
24
24
24
24
24
24
24
24
24
24
24
24
24
24
24
24
24
24
24
24
24
24
24
24

POINT_DATA 228
FIELD FieldData 19
Displacement 3 228 double
-0.00812414 3.31274e-05 -0.0869141 0.00810954 1.94004e-05 -0.0869144 -0.00811693 1.56184e-05 -0.0869089 
0.008129 3.38889e-05 -0.0869237 0 0 0 0 0 0 
0 0 0 0 0 0 0.00131564 -0.000266359 -0.00102869 
0.00259143 -0.000253448 -0.00397155 0.00375657 -0.000224973 -0.00871178 0.00479015 -0.000193344 -0.0150379 
0.00565783 -0.000158199 -0.0227513 0.00640641 -0.000133761 -0.0316472 0.00702299 -9.08624e-05 -0.0415483 
0.00749466 -6.33255e-05 -0.05223 0.00782896 -3.68695e-05 -0.0635008 0.00804676 -9.39387e-06 -0.0751749 
0.00133628 0.000253383 -0.00104021 0.0026195 0.000248234 -0.00397051 0.00377252 0.000224985 -0.00871002 
0.00478521 0.000200974 -0.0150399 0.00568105 0.000172294 -0.0227573 0.00642407 0.000151173 -0.031655 
0.00703747 0.000120331 -0.0415517 0.0075122 9.55525e-05 -0.0522311 0.00785334 7.52012e-05 -0.0635018 
0.00804999 5.28041e-05 -0.0751752 -0.00132837 0.000295963 -0.00101852 -0.00261952 0.00025461 -0.00397338 
-0.0037794 0.000228692 -0.00871582 -0.00480649 0.000203195 -0.0150382 -0.00567803 0.000178163 -0.0227512 
-0.00643201 0.000158363 -0.0316527 -0.00704009 0.000125273 -0.0415528 -0.00751662 0.000106418 -0.0522309 
-0.00785506 8.15831e-05 -0.0635054 -0.00806462 5.21201e-05 -0.0751769 -0.00131369 -0.000287103 -0.00102798 
-0.00261157 -0.000250033 -0.00397615 -0.00375968 -0.000219105 -0.00871555 -0.00476975 -0.000189061 -0.0150409 
-0.00566923 -0.000160083 -0.0227549 -0.00641773 -0.000135053 -0.0316529 -0.00702606 -9.21023e-05 -0.0415522 
-0.00750197 -6.8998e-05 -0.0522335 -0.00784631 -3.73851e-05 -0.0635047 -0.00803672 -3.68737e-06 -0.0751755 
-3.94934e-06 2.5323e-05 -0.0869199 0 0 0 -2.7673e-06 1.37286e-05 -0.0364904 
0 0 0 0.00064692 -0.000187484 -0.000277704 0.001962 -0.000262209 -0.00226788 
0.00318249 -0.000235341 -0.00613194 0.00428102 -0.000205507 -0.0116892 0.00523232 -0.000179814 -0.0187332 
0.00604167 -0.000145697 -0.0270668 0.00672844 -0.000112284 -0.0364892 0.00726838 -7.87055e-05 -0.0468069 
0.00767183 -5.05319e-05 -0.0578084 0.00794604 -1.89441e-05 -0.0693016 0.00808806 3.50086e-06 -0.0810297 
0.00812992 2.48271e-05 -0.0869271 0.000637429 0.000185292 -0.000316585 0.00198796 0.000253289 -0.00226964 
0.00320754 0.000237531 -0.00613418 0.00429044 0.00021315 -0.0116931 0.00524418 0.000187787 -0.0187339 
0.00606415 0.000161627 -0.0270728 0.00674238 0.000138119 -0.0364917 0.00728684 0.000108975 -0.0468093 
0.00769513 8.58701e-05 -0.0578094 0.00796321 6.4207e-05 -0.0693056 0.00810102 4.28853e-05 -0.0810308 
0 0 0 -0.000623636 0.00021172 -0.000313386 -0.00198853 0.000268647 -0.0022539 
-0.00321091 0.000239888 -0.0061299 -0.00430369 0.000216112 -0.0116874 -0.00525318 0.000189946 -0.018737 
-0.00606692 0.000168379 -0.0270618 -0.00674796 0.000141764 -0.0364896 -0.0072911 0.000115237 -0.0468005 
-0.00769818 9.2948e-05 -0.0578016 -0.00797105 6.5735e-05 -0.0693003 -0.00810396 4.16095e-05 -0.0810347 
-0.00813222 2.65346e-05 -0.0869216 -0.000643862 -0.000207073 -0.000282119 -0.00197027 -0.000265752 -0.00226515 
-0.00319371 -0.000238014 -0.00613474 -0.00427362 -0.00020806 -0.0116921 -0.0052282 -0.000170352 -0.0187368 
-0.00605291 -0.00014729 -0.0270634 -0.00673497 -0.00011124 -0.0364919 -0.00727322 -8.07518e-05 -0.0468028 
-0.00768343 -5.22805e-05 -0.0578038 -0.00795002 -2.39296e-05 -0.069303 -0.00808978 7.14298e-06 -0.0810333 
-4.78104e-06 2.45097e-05 -0.0869097 0 0 0 -4.11191e-06 2.84025e-05 -0.0869098 
0 0 0 0.000627331 -6.15258e-06 -0.000396113 0.00132224 -8.78838e-06 -0.00115565 
0.00197739 -3.90958e-06 -0.00239563 0.00261107 -2.52656e-06 -0.00409683 0.00320389 5.31874e-06 -0.00625233 
0.00376892 6.09961e-07 -0.00882348 0.00429429 9.19649e-06 -0.0117967 0.00524955 -1.5734e-06 -0.018824 
0.00567614 6.00723e-06 -0.0228347 0.00606119 9.39543e-06 -0.0271471 0.00642207 9.79075e-06 -0.0317216 
0.006749 1.4922e-05 -0.0365518 0.00703755 1.29661e-05 -0.0416009 0.00728541 1.61541e-05 -0.0468551 
0.0075096 1.56094e-05 -0.0522684 0.00769006 1.89154e-05 -0.0578441 0.00784791 1.9757e-05 -0.0635312 
0.00796495 2.73272e-05 -0.0693257 0.00810336 2.16212e-05 -0.0810398 0.00478949 4.20747e-06 -0.015137 
0.00805198 2.26686e-05 -0.0751902 -0.00062785 -3.3519e-06 -0.000409998 -0.00198376 -2.38239e-06 -0.00238764 
-0.0013189 -1.66211e-06 -0.00115394 -0.00321089 -3.80905e-06 -0.00625106 -0.00261978 1.36844e-06 -0.00410117 
-0.00430062 -8.46146e-07 -0.0117938 -0.00377513 4.48174e-06 -0.00882705 -0.00567842 9.33603e-06 -0.0228368 
-0.00525392 1.48309e-05 -0.0188284 -0.00606696 9.4727e-06 -0.0271406 -0.00703927 1.48996e-05 -0.0416071 
-0.00675446 1.6934e-05 -0.0365537 -0.00728888 1.60097e-05 -0.0468499 -0.00769711 1.88452e-05 -0.057839 
-0.00751467 1.90458e-05 -0.0522776 -0.00797241 1.60394e-05 -0.0693237 -0.00785565 2.2403e-05 -0.0635378 
-0.0081096 2.67931e-05 -0.0810438 -0.00479602 7.24614e-06 -0.0151373 -0.00643097 1.26847e-05 -0.0317272 
-0.00805777 2.45019e-05 -0.0751889 -2.27543e-05 -6.81984e-06 -0.000135646 -3.18616e-06 -6.05257e-07 -0.000883683 
-3.99703e-08 -5.42748e-06 -0.00213201 -4.41324e-07 -5.58346e-07 -0.00384647 -1.69944e-06 8.15304e-07 -0.00601408 
-8.47233e-07 1.89761e-06 -0.00859978 1.14574e-09 4.24363e-06 -0.0115849 -1.57079e-06 6.45506e-06 -0.0186422 
-5.44324e-06 9.4139e-06 -0.0226676 -3.01786e-06 6.95561e-06 -0.0269889 1.36212e-06 1.19507e-05 -0.0315804 
-3.26184e-06 1.42873e-05 -0.0364251 -2.49931e-06 1.63146e-05 -0.041494 -3.17293e-06 1.16274e-05 -0.046756 
-1.13551e-06 1.94748e-05 -0.0521883 -1.61844e-06 1.3817e-05 -0.0577722 -4.34452e-07 2.15888e-05 -0.0634755 
-9.4044e-07 2.27129e-05 -0.0692828 -1.96494e-06 2.51631e-05 -0.0810252 3.59328e-06 4.9195e-06 -0.0149399 
2.46803e-06 2.27739e-05 -0.0751616 -2.53508e-05 -3.95824e-06 -0.000138102 -2.60325e-06 -3.90028e-08 -0.00213095 
-9.69458e-06 3.79534e-07 -0.000882583 -3.73595e-06 -1.44939e-07 -0.00601311 -4.00388e-06 -1.60385e-06 -0.00384852 
-2.59751e-06 3.22069e-06 -0.011585 -4.19968e-06 2.09465e-06 -0.00860206 -9.0733e-06 8.0517e-06 -0.0226702 
-4.27226e-06 7.89563e-06 -0.0186459 -2.83524e-06 1.41801e-05 -0.0269901 -8.15956e-06 1.46069e-05 -0.0414968 
-2.21175e-06 1.48316e-05 -0.0364275 -4.43027e-06 2.01156e-05 -0.0467552 -3.92119e-06 2.38185e-05 -0.0577703 
-4.94033e-06 1.51046e-05 -0.0521904 -2.36175e-06 2.136e-05 -0.0692813 -4.4348e-06 1.90566e-05 -0.063477 
-5.23745e-06 2.27217e-05 -0.081026 -1.75448e-07 5.79128e-06 -0.0149419 -2.81061e-06 1.00857e-05 -0.0315839 
-6.37801e-07 2.40309e-05 -0.0751612 -0.00405738 2.49693e-05 -0.0869153 0.0040553 2.69793e-05 -0.0869229 
0.00405238 2.51907e-05 -0.086918 -0.00406131 2.68954e-05 -0.0869173 0 0 0 
0 0 0 0 0 0 0 0 0 
-1.23221e-07 -2.85298e-06 -0.00397215 -2.15446e-07 1.98623e-05 -0.0635053 -3.26666e-06 2.2362e-05 -0.0693038 
-2.8987e-06 2.32709e-06 -0.0087131 -4.41612e-06 4.33302e-06 -0.0116901 -7.23168e-06 5.67889e-06 -0.015039 
-1.98744e-06 4.11446e-08 -0.00613232 -0.00405244 3.00589e-05 -0.0810357 0.0040428 1.7825e-05 -0.0810331 
-5.77427e-06 2.45607e-05 -0.0751772 -0.00404701 2.13528e-05 -0.0810344 -3.00508e-06 1.57635e-05 -0.0468035 
-3.69705e-06 1.36761e-05 -0.0415482 -2.07395e-06 1.89719e-05 -0.0578064 -2.67916e-06 1.7318e-05 -0.052231 
-0.000312826 5.37809e-05 -0.000257227 0.000311838 -6.31983e-05 -0.000254002 -0.000317217 -5.94566e-05 -0.000269984 
-2.59155e-06 -2.79342e-06 -0.00225696 -5.61771e-06 -9.73823e-06 -0.00100945 0.000304786 5.40265e-05 -0.000245024 
-0.00329254 -2.19753e-05 -0.0340452 -0.00329529 4.85673e-05 -0.0340423 0.00328606 -2.28185e-05 -0.0340412 
-1.38895e-06 1.38274e-05 -0.0316535 0.00329064 4.70214e-05 -0.0340416 0.00344386 4.27173e-05 -0.0389911 
0.00343889 -1.37157e-05 -0.0389924 -3.45107e-06 6.82669e-06 -0.0187348 -1.66567e-06 9.10392e-06 -0.0227532 
-2.07402e-06 1.05345e-05 -0.0270668 -0.00344906 4.35035e-05 -0.0389927 -0.00344438 -1.30884e-05 -0.0389955 

Displacement%20Magnitude 1 228 double
0.087292975244 0.087291912241 0.087287122165 0.087302986267 0 0 0 0 0.0016911708496 
0.0047489951291 0.0094898652142 0.015783578661 0.023444780206 0.032289398398 0.042137772573 0.052765015291 0.063981603408 0.075604338664 
0.0017122745186 0.0047632289499 0.0094945760201 0.015784081136 0.02345631509 0.032300627759 0.042143614421 0.052768646812 0.063985617193 
0.07560499866 0.0016998658608 0.0047659689368 0.0095027197509 0.015788954797 0.023449709341 0.032299988371 0.042145150947 0.052769099062 
0.063989408909 0.075608247605 0.0016926170356 0.0047636732873 0.0094944200721 0.015780206967 0.023451039836 0.032297237902 0.042142132442 
0.052769525646 0.063987599583 0.075603866847 0.086919903778 0 0.036490402687 0 0.00072854323706 0.0030102287711 
0.0069126200641 0.012450171164 0.019451022798 0.027733277236 0.037104531114 0.047367936729 0.058315269352 0.069755656926 0.081432358488 
0.087306454114 0.00073544198788 0.00302777245 0.0069262470429 0.012457202572 0.019454965871 0.027744126195 0.037109607029 0.047373204232 
0.058319371805 0.069761615717 0.081434752488 0 0.00072935451181 0.0030176958067 0.0069241001791 0.012456475054 0.019460399497 
0.027734038455 0.037108570026 0.047365179394 0.058312053447 0.069757247217 0.081438924988 0.087301192734 0.00073282237448 0.0030138832958 
0.0069203662545 0.012450394342 0.019453297131 0.027732418455 0.037108367801 0.047364631719 0.058312238203 0.06975750282 0.081436111771 
0.086909703588 0 0.086909804738 0 0.00074194847973 0.0017561101263 0.0031063048134 0.0048581590111 0.0070254231083 
0.0095947150895 0.012554009004 0.019542281179 0.023529601048 0.027815519965 0.032365150788 0.037169655728 0.042191967943 0.04741811738 
0.052805113146 0.05835304007 0.064014087943 0.069781758761 0.081443932216 0.015876649557 0.075620110234 0.00074987013391 0.0031042123289 
0.0017524489996 0.0070274874759 0.004866502285 0.012553447795 0.009600439485 0.023532190189 0.019547699145 0.027810434404 0.042198368624 
0.037172516734 0.047413512399 0.058348914116 0.052814941917 0.069780620233 0.064021588294 0.081448534968 0.01587890776 0.032372407323 
0.075619434942 0.00013771022367 0.00088368895118 0.0021320169088 0.0038464700658 0.0060140802954 0.0085997802511 0.011584900777 0.018642201184 
0.022667602608 0.026988901065 0.031580402291 0.036425102948 0.041494003283 0.046756001553 0.052188303646 0.057772201675 0.063475503673 
0.069282803729 0.081025203931 0.014939901242 0.075161603491 0.00014046527375 0.0021309515905 0.00088263632421 0.0060131111623 0.003848522417 
0.011585000739 0.0086020612802 0.022670203246 0.018645902161 0.026990103874 0.041496803373 0.036427503087 0.046755204537 0.057770305043 
0.05219040242 0.069281303333 0.063477003015 0.081026003355 0.014941901123 0.031583901735 0.075161203844 0.08700995535 0.087017450723 
0.087012419471 0.087012137093 0 0 0 0 0.0039721510265 0.063505303106 0.069303803685 
0.0087131007929 0.011690101637 0.015039002811 0.0061323203222 0.081136969675 0.081133888389 0.075177204234 0.081135397511 0.046803502751 
0.041548202415 0.05780640315 0.05223100294 0.00040855626419 0.00040712894686 0.00042077674915 0.0022569632166 0.0010095126023 0.00039477858234 
0.034204048673 0.034201454417 0.034199444563 0.031653503051 0.034200307794 0.039142916034 0.039143753145 0.018734801562 0.022753201882 
0.027066802129 0.039144968524 0.039147323601 
Tresca%20Stress 1 228 double
8323032.2048 12232982.866 7818614.3006 10350102.893 145449946.21 166253735.94 164198202.21 159367199.18 195261192.29 
175601631.46 159398182.53 137990746.78 115471372.02 98025752.911 76413066.56 56443954.436 40020839.91 21683817.857 
208492415.83 173445119.2 153762169.42 137794993.6 119111312.9 97089666.455 78778451.539 56349983.709 36406088.94 
21561104.69 209670582.72 179107666.04 161338003.26 137484024.2 117797170.63 99074206.046 82526210.232 61808115.982 
42471477.013 19181810.212 198788854.66 177503245.78 156018293.67 138609934.85 120403756.95 101018565.99 78687206.767 
63065507.785 41214862.409 22820087.864 12468955.21 7468098.3376 9264818.8534 139597837.72 196483142.19 184211498.89 
168950556.78 150403068.64 125622027.83 108467013.72 89672068.041 69105367.108 49698040.784 33359439.901 13077841.474 
8277893.8338 194254842.44 184981015.13 166041085.62 146355776.42 130580831.22 107295845.32 89214273.794 68486474.379 
49026074.974 29247558.292 14189355.715 139353931.19 185437091.22 189248284.22 168697597.33 149557291.7 126134706.11 
109426831.24 88440398.107 69501834.459 49805587.75 32398782.42 10879227.601 6255224.3596 182453505.09 190225198.38 
166220816.55 146410924.3 130751277.06 109492229.36 88970482.432 69761169.15 51104305.953 29313137.359 14514755.009 
11714782.367 18806887.132 11041500.65 25780622.88 192676679.49 201708605.45 187055234.23 176514454.27 167544447.94 
156991554.94 147830142.78 129257787.65 115249318.17 108052626.85 98317134.758 88754547.159 76673030.627 68255052.519 
55857854.147 49361902.633 39414247.397 30285913.355 12456649.989 137844419.49 20939393.461 193803519.54 187521057.4 
203525677.14 167707851.37 179865596.63 148629453.14 158187254.06 117768194.78 128359339.82 108973997.89 79642405.142 
87720516.576 68673711.286 49510634.275 62475899.056 31017789.167 42930108.509 11200387.832 137717425.91 100945996.9 
19271253.827 34131092.878 11782831.426 11261709.211 12131002.715 12385789.168 11177170.221 11431569.888 11468805.865 
12408323.608 11208953.89 11580894.875 13044225.656 12113891.024 11204392.799 11825943.142 11538409.675 12478486.704 
12352679.659 10709733.525 9769034.553 10568587.445 29822943.137 9859671.4568 15633990.677 11868212.167 10575286.402 
12574014.577 11528156.871 10835994.482 12311698.167 10748786.639 11743956.934 11653658.896 10967750.121 10864962.634 
11666056.26 12137844.739 10775854.173 11468426.758 13543994.935 11679679.153 12515878.98 10093307.735 10946505.331 
11671562.628 9991390.1557 74382638.913 77549595.453 67196607.235 80021793.719 11233972.606 10631292.376 9766083.6819 
10773151.062 9913178.5549 10474585.804 9734434.4289 10794703.097 11793886.304 10476019.225 13579894.706 10885483.71 
10435798.583 10815698.3 10793957.294 104334774.67 96843949.614 102574016.62 11102015.841 11389870.008 102665752.87 
49097304.069 48759108.152 48209733.973 11281332.016 48385446.105 42015909.593 40651465.901 10150093.356 10690660.081 
10943304.768 43127694.555 41591773.505 
Strain%20xx%20component 1 228 double
-2.94247e-05 4.37605e-05 -4.06178e-05 6.77209e-05 -0.00160188 0.0017014 -0.00169713 0.00166628 0.00183225 
0.00166858 0.00151396 0.00131144 0.0010913 0.00092362 0.00072007 0.000526737 0.000363372 0.000194506 
0.00191949 0.00164746 0.00145956 0.00130936 0.00112752 0.000920266 0.000748825 0.000533411 0.000337762 
0.000190213 -0.00192589 -0.00170401 -0.00152978 -0.00130735 -0.00111912 -0.000940274 -0.000779938 -0.000585196 
-0.000399327 -0.00017495 -0.0018495 -0.00168488 -0.00148213 -0.00131245 -0.00114173 -0.000951603 -0.000742368 
-0.000592391 -0.000381544 -0.000181714 1.3862e-05 -2.06785e-05 -3.66931e-06 0.00163905 0.00180718 0.00175246 
0.00160047 0.00141974 0.00119187 0.00102827 0.000846946 0.000647893 0.000459203 0.00029918 8.71872e-05 
4.62434e-05 0.00183554 0.00176266 0.0015838 0.00139106 0.00123054 0.00102062 0.00084258 0.000652097 
0.000468597 0.000270133 0.000109729 -0.00161345 -0.00182468 -0.00177356 -0.00159322 -0.00141084 -0.00119716 
-0.00103568 -0.000835278 -0.000654569 -0.000464878 -0.000287856 -8.26649e-05 -3.62135e-05 -0.00180451 -0.00178281 
-0.00157706 -0.00138747 -0.00123554 -0.00102816 -0.000835621 -0.000653709 -0.000473005 -0.000261541 -0.000111404 
1.87977e-05 4.88899e-05 3.91158e-05 -3.39762e-05 0.00184346 0.00186995 0.00177256 0.00168258 0.00158818 
0.00149248 0.00139954 0.00122037 0.00109243 0.00102742 0.000930568 0.00084251 0.000727114 0.000651775 
0.000527901 0.000467924 0.000371835 0.000276747 0.000101258 0.00131145 0.000191051 -0.00184953 -0.00177739 
-0.00189982 -0.00158934 -0.0017095 -0.00140454 -0.00150052 -0.00111816 -0.00121045 -0.00103034 -0.000751955 
-0.000833959 -0.000648159 -0.000464201 -0.000590506 -0.000282015 -0.00040414 -9.872e-05 -0.00130922 -0.000954793 
-0.000173024 -7.50445e-05 1.23616e-05 3.82314e-05 -2.96362e-05 2.68347e-05 -7.89746e-06 3.13856e-05 -3.88531e-05 
-3.33417e-06 3.48844e-05 -1.69044e-05 2.99289e-05 -2.72563e-05 3.34466e-05 -2.79386e-05 3.41657e-05 -2.82377e-05 
3.0621e-05 -3.71423e-05 1.05919e-06 6.95744e-06 -7.33345e-05 3.94788e-05 4.97952e-05 2.66662e-05 -9.98332e-06 
3.36521e-05 -1.1209e-05 -4.3531e-06 -3.93689e-05 3.54633e-05 9.94253e-07 -4.12553e-05 3.36815e-05 3.4191e-05 
-2.85585e-05 3.27605e-05 -1.30296e-05 -3.98072e-05 -3.02942e-06 -5.67125e-06 -3.88001e-06 3.1924e-06 4.12002e-05 
1.61192e-05 1.98913e-06 0.000789763 -0.000810394 -0.000748007 0.000820365 -9.39641e-06 -1.45644e-05 -3.05558e-05 
1.6472e-06 -2.87047e-05 7.49043e-07 -2.65753e-05 -5.96584e-05 6.17186e-05 5.42783e-06 -6.4514e-05 2.71687e-05 
-1.6762e-05 2.99219e-05 -2.89599e-05 -0.000953826 0.00091034 -0.00093369 2.96756e-05 -1.36608e-05 0.000939708 
-0.000449733 -0.000457018 0.000444563 -1.75006e-05 0.000454126 0.000391547 0.000381266 3.10641e-05 -1.57983e-05 
2.64566e-05 -0.00040058 -0.000382655 
Strain%20xy%20component 1 228 double
-5.11156e-06 7.60929e-06 8.667e-07 -5.81009e-06 0.000378376 -0.000261259 -0.000305502 0.00028564 -3.93768e-06 
6.10543e-06 3.30471e-06 6.36125e-06 3.30347e-06 2.4686e-06 2.2419e-06 5.69935e-07 8.37956e-06 5.08079e-06 
2.15865e-05 -4.59161e-06 -4.22993e-06 -1.06613e-05 -4.85787e-06 -5.53592e-06 -7.76236e-06 -6.64176e-06 -2.531e-06 
-9.58505e-06 3.5799e-05 -8.04286e-06 -2.6711e-06 -4.89895e-06 -9.05455e-06 -6.62925e-06 -5.82812e-06 -5.82045e-06 
-6.0899e-06 -3.96317e-06 -4.19038e-06 2.02552e-06 -2.14787e-06 2.52693e-06 -3.68862e-07 8.12596e-06 6.44757e-06 
5.16407e-06 -3.47254e-07 3.09041e-06 -1.24811e-06 4.0027e-06 -1.09367e-06 7.20429e-05 -0.000169448 6.13963e-06 
6.50698e-06 2.1664e-05 1.69807e-05 8.149e-06 1.24026e-05 1.10878e-05 8.272e-06 8.66382e-06 1.33816e-05 
-3.19302e-06 0.000178221 -8.50005e-06 -1.52419e-05 -1.08312e-05 -1.25154e-05 -1.06384e-05 -1.0814e-05 -1.22686e-05 
-1.22828e-05 -1.00401e-05 -7.18747e-06 8.29479e-05 0.000195009 -3.53077e-05 -1.35815e-05 -1.49943e-05 -1.16577e-05 
-8.76928e-06 -9.97075e-06 -8.97792e-06 -1.2748e-05 -1.39089e-05 -6.52213e-06 -2.55449e-06 -0.000170725 2.3803e-05 
1.40387e-05 -1.12718e-06 2.28184e-06 1.70033e-05 1.7638e-05 1.19139e-05 1.88307e-05 6.52141e-06 8.56705e-06 
-2.44802e-06 7.81844e-05 8.23278e-06 -9.26918e-05 -8.06953e-05 5.99586e-06 -1.00527e-05 -6.74673e-06 -1.48471e-05 
-3.43614e-06 -6.31452e-06 -8.82708e-06 -6.87803e-06 -8.97297e-06 -6.08789e-06 -3.42737e-06 -1.03677e-05 -5.0209e-06 
-1.06686e-05 -8.45938e-06 -3.87559e-06 -1.01687e-05 -4.55797e-06 -4.25621e-06 -6.00478e-06 -7.9498e-05 2.62851e-06 
1.66235e-05 -9.43529e-06 -7.48041e-06 -1.87999e-05 -5.3433e-06 -7.49942e-06 -1.6851e-05 -3.93554e-06 -8.98816e-06 
-6.65654e-06 -6.22137e-06 -3.92082e-06 -8.41919e-06 -1.16968e-05 -8.67488e-06 -9.4946e-06 -1.97341e-06 -4.65758e-06 
-6.2654e-06 -0.000138213 2.70253e-06 4.60812e-06 8.57809e-06 9.62234e-06 1.07964e-05 1.34761e-05 7.37532e-06 
1.93788e-06 1.29604e-06 4.85543e-06 2.9201e-06 8.9257e-06 3.51216e-06 8.80302e-06 2.61517e-06 1.03851e-05 
9.53213e-06 2.88098e-06 1.75567e-05 1.71278e-05 0.000130553 -1.83399e-06 -2.23164e-06 1.25204e-05 1.05208e-05 
1.4584e-06 7.37337e-06 1.47735e-05 3.24534e-07 5.62298e-06 1.33597e-05 3.04686e-06 5.69459e-06 6.60959e-06 
1.08917e-05 5.44867e-06 1.02367e-05 1.15813e-06 -1.36195e-06 4.8447e-06 -1.06558e-06 -4.19771e-07 -1.27416e-06 
1.72468e-06 -1.09453e-06 0.00012643 -0.000148036 0.000161427 -0.000126303 -1.0115e-07 -3.69928e-07 -3.3285e-06 
1.80661e-07 -3.83623e-06 -3.65739e-08 -5.84476e-06 -5.0143e-06 6.8714e-06 -3.5247e-07 9.06169e-08 -4.18448e-06 
-4.34664e-07 -3.59252e-06 2.4053e-07 3.31658e-05 1.64921e-05 -5.77997e-06 2.23556e-06 -9.09247e-07 2.00118e-05 
5.13987e-06 -3.50684e-06 -1.38691e-07 4.93606e-07 -1.67927e-06 -6.05581e-06 1.64426e-06 -6.91549e-07 1.47713e-08 
-3.24544e-06 -2.20852e-06 1.49011e-06 
Strain%20xz%20component 1 228 double
-4.44906e-05 -6.69567e-05 -3.88791e-05 -3.95426e-05 -0.000161419 -4.7972e-05 -0.000201415 5.52603e-06 -6.17784e-05 
-7.72684e-05 -6.48202e-05 -4.42792e-05 -7.54524e-05 -7.18809e-05 -5.92929e-05 -6.51157e-05 -7.33054e-05 -4.83922e-05 
-5.93862e-06 -3.89671e-05 -4.31596e-05 -5.42276e-05 -3.46627e-05 -3.81322e-05 -4.31586e-05 -3.99832e-05 -4.27494e-05 
-4.94276e-05 -3.36399e-05 -4.11568e-05 -3.94746e-05 -3.24291e-05 -5.24528e-05 -3.01885e-05 -5.60622e-05 -4.2424e-05 
-4.08765e-05 -3.2286e-05 -6.2101e-05 -5.75523e-05 -6.61165e-05 -9.02977e-05 -5.45551e-05 -7.06582e-05 -5.74485e-05 
-6.34893e-05 -5.6256e-05 -7.79427e-05 -7.66125e-05 -3.6048e-05 -5.70935e-05 -0.000264554 -4.98405e-05 -6.38246e-05 
-6.80769e-05 -5.80409e-05 -5.87693e-05 -6.17092e-05 -6.4236e-05 -5.8072e-05 -6.55963e-05 -6.68579e-05 -5.4502e-05 
-3.78106e-05 -4.4947e-05 -1.404e-05 -3.32654e-05 -4.65114e-05 -4.40339e-05 -3.81312e-05 -4.29872e-05 -3.34378e-05 
-3.38674e-05 -4.46306e-05 -4.51486e-05 -0.000294126 -8.6174e-05 -3.77603e-05 -3.43553e-05 -2.80475e-05 -4.10762e-05 
-4.51411e-05 -4.07179e-05 -3.98651e-05 -3.70746e-05 -3.3419e-05 -3.56713e-05 -2.70741e-05 -7.92004e-05 -6.20983e-05 
-5.75062e-05 -7.07883e-05 -7.31281e-05 -5.62106e-05 -6.63713e-05 -6.40157e-05 -5.60123e-05 -6.3071e-05 -5.17057e-05 
-7.11625e-05 8.27292e-05 -6.1399e-05 0.000128802 -0.000128759 -4.68667e-05 -2.99758e-05 -4.75193e-05 -3.87391e-05 
-3.95814e-05 -3.33188e-05 -2.69704e-05 -4.2562e-05 -3.20353e-05 -4.39439e-05 -2.3419e-05 -3.91609e-05 -2.91517e-05 
-4.24398e-05 -3.79757e-05 -4.39131e-05 -3.74904e-05 -2.89173e-05 -3.36354e-05 -3.4614e-05 -0.00014682 -4.46503e-05 
-4.90983e-05 -3.2527e-05 -4.00026e-05 -3.39366e-05 -3.88019e-05 -3.96035e-05 -3.46124e-05 -3.14759e-05 -4.35325e-05 
-2.25333e-05 -3.65992e-05 -3.0393e-05 -4.19704e-05 -2.89775e-05 -3.72785e-05 -1.66349e-05 -4.81094e-05 -3.90849e-05 
-3.96988e-05 5.79419e-05 -5.31987e-05 -6.04302e-05 -7.28262e-05 -7.28751e-05 -6.80814e-05 -6.42242e-05 -6.37131e-05 
-7.6763e-05 -6.49556e-05 -7.05809e-05 -7.78357e-05 -7.27476e-05 -6.49259e-05 -7.12452e-05 -6.69454e-05 -7.47842e-05 
-7.1294e-05 -6.08779e-05 -5.78667e-05 -6.30926e-05 4.5067e-06 -4.96409e-05 -3.4038e-05 -6.89524e-05 -6.40948e-05 
-7.38332e-05 -7.04776e-05 -6.53708e-05 -7.05757e-05 -6.04526e-05 -7.14622e-05 -6.63489e-05 -6.34904e-05 -6.19887e-05 
-6.97192e-05 -7.08006e-05 -6.54359e-05 -6.67121e-05 -8.38083e-05 -7.18824e-05 -7.73914e-05 -6.23192e-05 -6.03686e-05 
-7.0557e-05 -6.1727e-05 -2.9189e-06 -0.000116478 -8.42775e-05 -2.96779e-05 -6.92051e-05 -6.50717e-05 -5.68296e-05 
-6.66652e-05 -5.80879e-05 -6.4842e-05 -5.70697e-05 -5.22892e-05 -6.09641e-05 -6.47597e-05 -7.24918e-05 -6.43973e-05 
-6.36597e-05 -6.32044e-05 -6.4117e-05 -3.81943e-05 -5.74306e-05 -6.08848e-05 -6.46451e-05 -6.94009e-05 -1.2985e-05 
-6.35205e-05 -3.929e-05 -6.97645e-05 -6.88461e-05 -4.59658e-05 -5.27122e-05 -5.36883e-05 -5.96741e-05 -6.54199e-05 
-6.44768e-05 -5.94067e-05 -5.95774e-05 
Strain%20yy%20component 1 228 double
1.11828e-05 -1.47758e-05 2.38269e-05 -2.43765e-05 -1.71061e-09 -1.1311e-05 7.72706e-05 7.21717e-05 -0.000517687 
-0.000502732 -0.00045451 -0.000395559 -0.000323878 -0.000284792 -0.000207615 -0.000156448 -0.000115706 -6.32254e-05 
-0.000569607 -0.000488742 -0.000433966 -0.000392748 -0.000341544 -0.00027644 -0.000223949 -0.000159607 -9.67874e-05 
-5.8344e-05 0.00053518 0.000506502 0.000460913 0.000391547 0.000337062 0.000285539 0.000232933 0.000175437 
0.000118563 5.26129e-05 0.000464674 0.000498845 0.000444668 0.000393088 0.000339193 0.000294756 0.000214673 
0.000177356 0.000119355 5.77844e-05 -6.3702e-06 -3.39507e-05 -2.94662e-06 2.09651e-09 -0.000262343 -0.000508659 
-0.000488815 -0.000439767 -0.000345822 -0.000306215 -0.000252693 -0.000182778 -0.000131855 -0.00010209 -2.7536e-05 
-1.44883e-05 -0.000281963 -0.000514234 -0.000463215 -0.000407121 -0.000377935 -0.000302293 -0.000249943 -0.00018665 
-0.000132727 -7.18326e-05 -4.06011e-05 -2.35526e-09 0.000312408 0.00055424 0.00048923 0.000434539 0.000349636 
0.000317218 0.000253621 0.000201826 0.000147533 9.87829e-05 2.22149e-05 1.75088e-05 0.000289745 0.000509448 
0.000459149 0.000406232 0.000379228 0.000320445 0.000254839 0.000197411 0.000148235 7.22091e-05 3.81248e-05 
-7.1318e-06 -1.06595e-09 -5.96859e-06 -1.00879e-09 -0.000375074 -0.000519741 -0.000517876 -0.00050168 -0.000465519 
-0.000449956 -0.000410039 -0.000376691 -0.000330492 -0.000309448 -0.000284932 -0.000247549 -0.000211192 -0.000188944 
-0.000158878 -0.000137497 -0.00011207 -7.56492e-05 -4.31259e-05 -0.000394316 -6.21977e-05 0.000424883 0.000529224 
0.000583064 0.000484611 0.000504642 0.000431974 0.000447795 0.000338245 0.000352194 0.000314933 0.000217374 
0.000250287 0.000193967 0.00014526 0.000175415 9.7075e-05 0.000118968 3.63425e-05 0.000392254 0.000293415 
5.58073e-05 0.000172208 -3.87752e-05 -9.86838e-06 6.42738e-06 -1.44763e-05 -1.63733e-06 -1.68904e-05 1.5955e-05 
2.64174e-08 -1.27507e-05 -3.39788e-06 -6.62151e-06 7.09e-06 -1.05111e-05 3.64127e-06 -1.49111e-05 2.84463e-06 
-1.81322e-05 4.04458e-06 -1.55836e-06 -5.01919e-06 0.000187611 -1.18092e-05 -8.54129e-05 -1.57438e-05 -3.3433e-06 
-1.61749e-05 9.33205e-08 2.45721e-06 1.87983e-05 -1.02627e-05 -3.83925e-06 1.09063e-05 -1.56053e-05 -1.38763e-05 
3.41904e-06 -1.33235e-05 1.07546e-06 1.68725e-05 5.6143e-07 7.11553e-06 2.9868e-06 5.72379e-06 -1.26541e-05 
-5.81769e-06 4.1098e-06 2.16604e-05 1.69481e-05 -1.71061e-09 -1.11001e-05 8.92592e-07 4.82362e-06 2.08483e-05 
1.39825e-06 2.08346e-05 -1.40272e-06 1.88091e-05 1.5469e-05 -3.07394e-05 -9.97738e-07 2.19982e-05 -6.38419e-06 
3.3986e-06 -9.1934e-06 7.76411e-06 0.0002249 -0.000273004 0.000183465 -4.00759e-06 -4.5675e-07 -0.000298389 
0.000137322 0.000139769 -0.000138065 4.05188e-06 -0.000140039 -0.000122302 -0.000108281 -2.3647e-05 2.93933e-06 
-5.1543e-06 0.000122031 0.000106453 
Strain%20yz%20component 1 228 double
5.15517e-06 9.31756e-06 -5.42024e-06 -8.22508e-06 4.30682e-10 0.000133179 -0.000125466 -8.08658e-05 -1.59578e-05 
-3.89722e-08 -1.11999e-06 -8.43081e-07 -2.2924e-06 -2.45923e-06 -7.3399e-07 -1.03684e-06 3.57769e-06 -2.558e-06 
1.31756e-06 7.92932e-06 7.4152e-06 1.47279e-07 -5.18323e-06 2.43797e-06 -1.86915e-07 -4.92142e-08 7.04757e-06 
-7.33692e-07 -5.26347e-05 -6.21131e-06 5.83303e-06 -1.28287e-06 1.52263e-07 -8.64124e-08 3.5504e-06 4.93899e-07 
5.6249e-07 1.32464e-06 5.32551e-05 -3.77645e-07 -7.82149e-07 3.09404e-07 2.28987e-06 1.67741e-06 -3.14616e-08 
-5.83571e-07 -3.65276e-06 -6.00848e-07 1.89669e-06 8.6119e-06 4.06014e-07 4.62221e-11 0.000119692 -4.87866e-06 
-1.48639e-06 -2.83185e-06 -9.63384e-07 4.46068e-06 3.54986e-06 7.46119e-06 8.3303e-06 -1.31935e-06 2.15272e-06 
1.93851e-06 -1.16501e-05 2.23859e-06 7.7945e-06 8.40499e-06 -8.14916e-06 6.55265e-07 4.46941e-06 3.33311e-06 
-2.77515e-06 8.16454e-06 -3.39112e-06 2.29673e-11 -7.86555e-05 -2.50484e-05 7.3651e-06 5.88808e-06 -8.81528e-06 
6.06231e-07 -2.89459e-06 -5.61092e-07 1.64538e-06 1.23037e-05 1.30533e-06 -1.63631e-06 -3.88007e-05 2.14578e-05 
-2.72778e-06 -1.29857e-06 2.51044e-06 8.68763e-06 -5.4448e-06 6.03635e-06 8.01163e-06 -7.893e-07 -2.19203e-06 
1.00231e-05 8.38396e-10 -1.15987e-05 -4.56487e-10 2.60202e-05 -3.00763e-05 9.36572e-06 5.10132e-07 6.63795e-06 
-1.74898e-06 6.49747e-06 -7.40651e-06 8.13374e-07 -2.08896e-07 -5.4112e-07 -1.41997e-06 2.32749e-06 1.68581e-06 
-2.24065e-07 3.39832e-06 2.36745e-07 5.76714e-06 -6.27424e-06 -3.09479e-07 -1.18271e-06 -4.84632e-05 2.82018e-06 
2.83962e-05 4.7432e-06 -3.11328e-06 7.28401e-06 -2.25125e-06 1.06551e-06 -7.85885e-06 4.3744e-06 -2.10646e-06 
1.30325e-06 3.52835e-07 5.5064e-07 4.7032e-08 5.288e-06 -1.23125e-06 -2.07612e-06 -2.39167e-07 1.3654e-06 
-5.87968e-07 -5.19431e-05 -4.32402e-05 -9.1367e-06 -1.94487e-06 5.25402e-06 6.31793e-07 6.33518e-06 -7.44371e-06 
1.25359e-06 -4.24886e-06 -2.87648e-06 6.05846e-08 4.03916e-06 -3.53109e-06 3.32714e-06 -4.22149e-06 3.22557e-06 
9.34277e-06 -2.09004e-06 -1.40274e-06 -1.2198e-06 -4.40026e-07 2.54585e-06 6.26151e-05 5.81124e-06 2.33637e-06 
6.29554e-06 1.64294e-06 -1.56505e-06 -7.43421e-06 -1.59067e-06 -1.09962e-06 4.94677e-07 -2.90502e-06 -5.82901e-06 
3.77215e-06 4.6771e-06 1.80602e-06 -3.43852e-06 -2.09984e-07 6.52612e-06 -2.90844e-06 -4.24603e-06 -3.73973e-06 
7.6599e-06 3.13837e-06 -3.8307e-05 -4.84263e-05 4.30682e-10 6.49059e-05 -1.7719e-06 -2.44007e-06 4.91898e-07 
-1.49372e-06 1.3119e-06 -2.45117e-07 1.39594e-06 -1.77781e-06 -5.49459e-07 -1.91379e-06 1.69548e-06 -4.27629e-06 
-1.61058e-06 -6.17461e-06 -3.27544e-06 -8.04574e-06 -1.12688e-05 4.48464e-05 -8.41554e-06 6.57822e-06 -1.51424e-05 
2.11703e-06 3.9891e-06 -2.44801e-06 -1.40285e-06 -2.62636e-06 -2.14833e-06 -1.65252e-06 -1.76828e-06 -8.14519e-07 
-3.03867e-06 3.8821e-06 1.46161e-06 
Strain%20zz%20component 1 228 double
1.9671e-05 -2.07199e-05 1.30645e-05 -2.74203e-05 -2.11722e-09 -0.000255044 0.000173656 -0.000233901 -0.000578192 
-0.000498363 -0.000454917 -0.000392945 -0.000329921 -0.000275767 -0.000218506 -0.000159748 -0.000104947 -5.39097e-05 
-0.00066161 -0.00049266 -0.000436359 -0.000393139 -0.000339689 -0.0002781 -0.000222118 -0.000159509 -0.000100887 
-5.6553e-05 0.000647521 0.000506012 0.000460439 0.000393041 0.000334585 0.00028223 0.000232989 0.000174977 
0.00011981 5.28554e-05 0.000588965 0.000509744 0.000444794 0.000394128 0.000344305 0.000284051 0.000224998 
0.000177812 0.00011183 5.37577e-05 -4.46706e-06 2.76137e-05 7.00095e-06 2.43826e-09 -0.000568989 -0.000523418 
-0.000479383 -0.000422326 -0.00035881 -0.000304655 -0.0002529 -0.000196357 -0.000136778 -8.23376e-05 -2.84257e-05 
-2.2656e-05 -0.000552641 -0.000527009 -0.000463595 -0.000413228 -0.000373131 -0.000305498 -0.000256898 -0.000191923 
-0.000130678 -7.69535e-05 -3.81132e-05 -2.28799e-09 0.000386668 0.000523609 0.000483596 0.000433185 0.000356933 
0.000313272 0.000255117 0.000202122 0.000142996 9.00708e-05 3.06445e-05 1.89303e-05 0.000426858 0.000561682 
0.000477111 0.000419608 0.000368649 0.000307415 0.000251048 0.000196708 0.000141404 7.84095e-05 3.30535e-05 
-3.21768e-07 -1.94644e-09 -1.48364e-05 -1.57713e-09 -0.000522034 -0.000617203 -0.000539135 -0.000498996 -0.000482567 
-0.00044221 -0.000427467 -0.000357964 -0.000331751 -0.000303101 -0.000277956 -0.000255074 -0.000218419 -0.000190542 
-0.000157856 -0.000135699 -0.000104456 -8.90719e-05 -2.56859e-05 -0.000393086 -5.43135e-05 0.000511651 0.000542043 
0.000595937 0.000472954 0.000515207 0.000412167 0.00045594 0.000334656 0.000374858 0.000311103 0.000229957 
0.000249489 0.000198822 0.000145458 0.000178292 7.73771e-05 0.000121904 2.7547e-05 0.00039312 0.000285754 
5.17044e-05 0.000175601 -1.01682e-05 -2.83558e-05 1.82632e-06 -1.40138e-05 4.04296e-06 -1.76076e-05 1.82898e-05 
-1.65708e-07 -1.30764e-05 5.49267e-06 -1.26692e-05 4.47396e-06 -1.45457e-05 8.84147e-07 -1.47803e-05 4.58377e-06 
-1.44701e-05 1.47693e-05 3.03789e-07 2.01278e-06 0.000117042 -3.12951e-05 -1.22259e-05 -1.35265e-05 5.64474e-06 
-1.32416e-05 5.53173e-06 -2.39183e-06 1.54198e-05 -1.91123e-05 5.87334e-07 1.50969e-05 -1.31645e-05 -1.572e-05 
2.42412e-06 -1.46683e-05 2.94982e-06 7.80026e-06 9.81798e-07 -2.13934e-06 2.85463e-07 1.56428e-07 -1.96092e-05 
-1.0372e-05 6.15701e-06 -9.82727e-05 7.9899e-05 -2.11722e-09 -0.000118708 3.8405e-06 4.50319e-06 9.96085e-06 
-5.03601e-07 9.58155e-06 5.83801e-07 9.52682e-06 2.3097e-05 -1.73281e-05 -2.32139e-07 2.0509e-05 -1.01764e-05 
4.98448e-06 -1.10022e-05 7.96677e-06 0.000334018 -0.000274068 0.000316786 -1.36274e-05 7.33499e-06 -0.000323872 
0.000144487 0.000137331 -0.00013475 5.72816e-06 -0.000131959 -0.000106651 -0.000110167 -7.88675e-06 4.14136e-06 
-1.39698e-05 0.000116227 0.00011822 
Stress%20xx%20component 1 228 double
-4580090 8070300 -7012800 12868800 -452840000 448702000 -449365000 451449000 385194000 
350408000 317805000 275203000 229292000 193186000 151932000 110596000 75989400 40793900 
393458000 346823000 307164000 274932000 236208000 192967000 157644000 112129000 71533800 
39851600 -401146000 -359041000 -320831000 -274523000 -234995000 -197021000 -164034000 -122976000 
-84007000 -36679100 -395187000 -354109000 -311226000 -275647000 -239949000 -198886000 -156594000 
-124435000 -79850700 -37855300 2605720 -6613410 -546090 463348000 410158000 370366000 
335139000 296905000 251563000 216675000 178171000 137221000 97267100 62231700 17867200 
8572470 417778000 372141000 335442000 293853000 256870000 214886000 176785000 138477000 
100556000 58338500 21482900 -456111000 -431126000 -370785000 -332531000 -293706000 -252824000 
-216392000 -174491000 -136102000 -96218800 -58494400 -16964600 -5822530 -423301000 -374214000 
-332392000 -292172000 -258669000 -214586000 -174934000 -137049000 -98623900 -55687600 -22869500 
4410940 13820400 8537140 -9605110 412445000 390875000 373027000 354418000 334103000 
313823000 294173000 255984000 228588000 216232000 194868000 177277000 153501000 138276000 
110860000 99179700 78882000 58277600 20288000 275339000 39892800 -409382000 -372665000 
-394225000 -333281000 -359703000 -294782000 -314696000 -234570000 -254100000 -215421000 -158376000 
-175204000 -135642000 -96004400 -124079000 -58588000 -85064700 -20166900 -274955000 -199744000 
-35887100 20923900 -2435140 6176720 -7377970 4134290 -1941100 4692900 -6834580 
-959421 6732500 -4524950 6123540 -6304120 6419370 -7349750 6061130 -7082610 
4706410 -8220480 147428 1602580 16178800 5938090 2247410 3992120 -2543380 
5949280 -2487190 -1222670 -6983620 6466300 -112914 -8512180 6035930 6079840 
-7365360 5869820 -3195700 -8263990 -669426 -1000330 -700403 1614880 7738150 
2595330 1806170 213978000 -217359000 -211456000 216184000 -2082860 -2987260 -4905250 
574040 -4429550 112534 -4079640 -12192500 11623800 1385400 -13087700 5674010 
-3722850 6011910 -6280880 -201924000 191066000 -203340000 6252520 -3028480 190259000 
-92993800 -95623500 92622100 -3762380 95424500 82948700 81315200 4961140 -3608210 
5162110 -84375100 -80953600 
Stress%20xy%20component 1 228 double
-825714 1229190 140005 -938553 61122300 -42203400 -49350300 46141800 -636086 
986261 533837 1027590 533637 398774 362154 92066.5 1353620 820744 
3487040 -741721 -683296 -1722210 -784733 -894264 -1253920 -1072900 -408854 
-1548350 5782910 -1299230 -431486 -791369 -1462660 -1070880 -941465 -940227 
-983753 -640205 -676907 327199 -346963 408197 -59585.4 1312660 1041530 
834196 -56094.8 499219 -201617 646589 -176670 11637700 -27372300 991787 
1051130 3499570 2743040 1316380 2003500 1791110 1336250 1399540 2161640 
-515795 28789500 -1373080 -2462150 -1749660 -2021720 -1718510 -1746880 -1981850 
-1984140 -1621870 -1161050 13399300 31501400 -5703550 -2193930 -2422150 -1883160 
-1416580 -1610660 -1450280 -2059300 -2246820 -1053570 -412648 -27578600 3845100 
2267790 -182083 368606 2746680 2849210 1924550 3041890 1053460 1383910 
-395449 12629800 1329910 -14973300 -13035400 968561 -1623900 -1089860 -2398380 
-555069 -1020040 -1425910 -1111070 -1449480 -983428 -553652 -1674780 -811069 
-1723400 -1366510 -626057 -1642630 -736287 -687542 -970003 -12842000 424605 
2685340 -1524160 -1208370 -3036910 -863148 -1211450 -2722090 -635741 -1451930 
-1075290 -1004990 -633364 -1360020 -1889480 -1401330 -1533740 -318781 -752378 
-1012100 -22326800 436562 744388 1385690 1554380 1744040 2176910 1191400 
313042 209360 784338 471709 1441840 567349 1422030 422451 1677590 
1539810 465389 2836090 2766790 21089300 -296259 -360495 2022530 1699520 
235588 1191080 2386480 52424.7 908327 2158100 492185 919896 1067700 
1759440 880169 1653620 187082 -220007 782605 -172132 -67809.1 -205826 
278603 -176809 20423300 -23913500 26076700 -20402800 -16339.6 -59757.5 -537680 
29183.7 -619698 -5908.09 -944154 -810002 1110000 -56937.5 14638.1 -675954 
-70214.9 -580330 38854.9 5357550 2664110 -933688 361128 -146878 3232670 
830286 -566490 -22403.9 79736.4 -271266 -978247 265612 -111712 2386.13 
-524264 -356761 240710 
Stress%20xz%20component 1 228 double
-7186950 -10816100 -6280470 -6387660 -26075400 -7749330 -32536300 892667 -9979590 
-12481800 -10470900 -7152790 -12188500 -11611500 -9578080 -10518700 -11841600 -7817200 
-959316 -6294680 -6971940 -8759840 -5599370 -6159810 -6971770 -6458820 -6905670 
-7984460 -5434140 -6648410 -6376660 -5238550 -8473150 -4876610 -9056210 -6853120 
-6603120 -5215430 -10031700 -9296910 -10680400 -14586600 -8812750 -11414000 -9280140 
-10256000 -9087510 -12590700 -12375900 -5823130 -9222800 -42735600 -8051160 -10310100 
-10997000 -9375840 -9493510 -9968400 -10376600 -9380860 -10596300 -10800100 -8804170 
-6107870 -7260670 -2268000 -5373630 -7513370 -7113170 -6159650 -6944080 -5401500 
-5470880 -7209550 -7293230 -47512700 -13920400 -6099740 -5549700 -4530750 -6635390 
-7292030 -6577500 -6439750 -5988970 -5398460 -5762290 -4373510 -12793900 -10031300 
-9289460 -11435000 -11813000 -9080180 -10721500 -10341000 -9048150 -10188400 -8352460 
-11495500 13363900 -9918300 20806500 -20799600 -7570770 -4842240 -7676200 -6257860 
-6393920 -5382270 -4356750 -6875410 -5174930 -7098620 -3783070 -6325990 -4709120 
-6855660 -6134540 -7093650 -6056130 -4671260 -5433420 -5591490 -23717000 -7212740 
-7931270 -5254350 -6461950 -5482070 -6268000 -6397490 -5591230 -5084560 -7032170 
-3639990 -5912180 -4909640 -6779830 -4680990 -6021910 -2687180 -7771520 -6313710 
-6412890 9359850 -8593640 -9761800 -11764200 -11772100 -10997800 -10374700 -10292100 
-12400200 -10492800 -11401500 -12573500 -11751500 -10488000 -11508800 -10814300 -12080500 
-11516700 -9834120 -9347700 -10191900 728005 -8018920 -5498450 -11138500 -10353800 
-11926900 -11384800 -10559900 -11400700 -9765410 -11543900 -10717900 -10256100 -10013600 
-11262300 -11437000 -10570400 -10776600 -13538300 -11611800 -12501700 -10067000 -9751850 
-11397700 -9971280 -471515 -18815700 -13614100 -4794120 -11179300 -10511600 -9180170 
-10769000 -9383430 -10474500 -9218960 -8446720 -9848050 -10461200 -11710200 -10402600 
-10283500 -10209900 -10357400 -6169860 -9277250 -9835240 -10442700 -11210900 -2097580 
-10261000 -6346850 -11269600 -11121300 -7425250 -8515040 -8672730 -9639660 -10567800 
-10415500 -9596470 -9624040 
Stress%20yy%20component 1 228 double
1979580 -1385560 3397490 -2008460 -194075000 172034000 -162731000 193940000 5588430 
-342112 -178843 -542723 686253 -2018720 2075370 235452 -1400070 -839584 
-8626880 1744570 1286230 -23687.8 -1102700 -346626 503836 179799 1337350 
-299935 -3588340 -1958170 741884 -85093.6 234734 995117 -416512 -104847 
-347881 81036.1 -21358900 -1353050 26410.5 -135817 -723291 2448970 -1994820 
-90704.8 1063940 832829 -662569 -8757380 -429348 198578000 75849700 5109000 
-2360760 -3477800 3167010 1104190 536712 3035260 1788510 -2588830 -665031 
-1238020 75719700 4334240 4770070 3377870 -2960910 1184490 300581 2987260 
3419440 3097900 -2801130 -195477000 -85904700 5243500 3865950 4394020 -2957240 
2152800 1407940 2238940 2709220 3962680 -22488.6 2855690 -84998800 -3926800 
-3465790 -2421160 2178010 3265920 1217640 439133 1730220 -1774130 1285150 
222328 5922660 1254270 -4116820 54065700 4848060 3034210 1575170 2351030 
44885.2 1856140 -2003260 -1268610 275824 -1481740 1190020 1927940 2467220 
-81202.3 1381040 712641 1352100 -3035540 -207068 -1016590 -41977600 -59000.1 
6857110 1741450 -2034340 1885660 32674.7 695066 -1672560 1891230 -1792020 
-56562.8 394044 2446930 -352798 2649650 -562681 1650870 -101683 1889390 
1077980 60864700 -10695700 -1593240 -1552310 -2539020 -929849 -3105530 2019040 
-416556 -962411 -2343130 219238 -755874 -681495 -2248390 -1866660 -2061610 
-3169110 -1567210 -275406 -332109 58331500 -2346890 -19593900 -2858730 -1470760 
-2099700 -661438 -122541 2412620 -920195 -893710 -86078.3 -1925780 -1684890 
-2199750 -1574510 -917185 891967 -89365.5 1065220 408851 2023790 -961397 
-948320 2148740 89900000 -83711200 -90624700 81870500 -420791 144649 3398500 
533827 3572950 -235059 3251700 -56584.1 -3311720 347425 887346 253925 
-466137 -306711 -348543 -11514500 -89489.9 -22876300 811391 -895518 -9741380 
1838060 780520 -1494850 -280837 -556040 -57704.7 2234490 -3876790 -581358 
55736.6 46651 -1943780 
Stress%20yz%20component 1 228 double
832758 1505140 -875578 -1328670 69.5716 21513500 -20267600 -13062900 -2577800 
-6295.51 -180921 -136190 -370310 -397261 -118568 -167489 577935 -413216 
212837 1280890 1197840 23791.2 -837292 393826 -30194 -7949.99 1138450 
-118519 -8502520 -1003360 942259 -207233 24596.3 -13958.9 573527 79783.6 
90863.8 213980 8602750 -61004.2 -126347 49980.7 369901 270967 -5082.25 
-94269.2 -590062 -97060.1 306388 1391150 65586.9 7.46665 19334900 -788092 
-240109 -457453 -155624 720571 573439 1205270 1345660 -213125 347747 
313144 -1881940 361618 1259110 1357730 -1316400 105850 721982 538425 
-448293 1318890 -547796 3.7101 -12705900 -4046280 1189750 951152 -1424010 
97929.7 -467587 -90638 265793 1987520 210861 -264327 -6267810 3466260 
-440642 -209769 405532 1403390 -879545 975103 1294190 -127502 -354098 
1619110 135.433 -1873630 -73.7402 4203270 -4858470 1512920 82405.9 1072280 
-282527 1049590 -1196440 131391 -33744.7 -87411.7 -229380 375979 272324 
-36195.1 548960 38243.5 931614 -1013530 -49992.7 -191053 -7828680 455568 
4587080 766209 -502915 1176650 -363663 172120 -1269510 706634 -340274 
210525 56996.4 88949.6 7597.47 854216 -198894 -335374 -38634.7 220565 
-94979.4 -8390810 -6984960 -1475930 -314171 848727 102059 1023380 -1202450 
202503 -686354 -464662 9786.74 652479 -570407 537461 -681933 521054 
1509220 -337623 -226597 -197045 -71081.1 411253 10114700 938739 377413 
1016970 265398 -252816 -1200910 -256954 -177631 79909.3 -469272 -941609 
609347 755532 291742 -555453 -33920.4 1054220 -469824 -685897 -604110 
1237370 506967 -6188060 -7822700 69.5716 10484800 -286229 -394166 79460.4 
-241293 211922 -39595.8 225498 -287185 -88758.7 -309151 273886 -690786 
-260171 -997438 -529110 -1299700 -1820350 7244420 -1359430 1062640 -2446090 
341981 644393 -395448 -226614 -424259 -347038 -266946 -285645 -131576 
-490862 627109 236106 
Stress%20zz%20component 1 228 double
3350760 -2345760 1658950 -2500150 -194075000 132662000 -147161000 144498000 -4185440 
363619 -244579 -120373 -289787 -560865 316001 -297707 337838 665252 
-23488900 1111590 899597 -86869.1 -802949 -614813 799559 195623 675152 
-10617.2 14559000 -2037450 665366 156301 -165392 460637 -407588 -179158 
-146391 120212 -1281220 407507 46768.2 32099.4 102463 719698 -326923 
-16953 -151648 182367 -355139 1187630 1177570 198578000 26314600 2724780 
-837020 -660375 1068940 1356070 503154 841737 993347 601977 -808756 
-2557430 31994800 2270460 4708640 2391500 -2184800 666739 -822966 2135400 
3750440 2270680 -2399250 -195477000 -73908900 295419 2955840 4175230 -1778480 
1515320 1649500 2286780 1976370 2555350 1339220 3085310 -62849700 4511090 
-564246 -260417 469220 1161190 605234 325619 626699 -772525 465939 
1322410 5922520 -178233 -4116910 30325900 -10895800 -399850 2008660 -402887 
1296120 -959180 1021920 -1472030 1301200 -354820 -25566.1 760547 2209150 
83742.9 1671460 1942680 -816173 -218308 -8295.59 257010 -27961100 2011880 
8936590 -141605 -327690 -1313960 1348430 115301 1988590 1272460 240621 
-185481 1178420 2479030 111859 -532308 -88436.6 230062 38143.8 651855 
415209 61412900 -6074570 -4579670 -2295560 -2464310 -12263.7 -3221390 2396190 
-447592 -1015020 -906963 -757689 -1178470 -1333230 -2693770 -1845520 -1780680 
-2577530 165236 25402.4 803825 46932000 -5494620 -7771390 -2500540 -18845.2 
-1625860 217074 -905847 1866870 -2349760 -178647 590871 -1531500 -1982710 
-2360470 -1791750 -614404 -573551 -21459.9 -429793 -27518.3 1124450 -2084910 
-1684010 2479450 70526200 -73542200 -90624800 64487600 55410.1 92887 1639750 
226604 1755150 85840.6 1752250 1175630 -1145270 471098 646770 -358659 
-209957 -598903 -315805 6112260 -261357 -1339770 -742573 363148 -13857900 
2995590 386639 -959284 -10053.3 749141 2470670 1929930 -1330910 -387183 
-1368310 -890787 -42931.2 
Major%20Principal%20Stress 1 228 double
7815347.0627 14870494.787 5322664.0524 15187877.948 -178007578.9 455362161.35 -133229234.36 459473114.5 385450458.82 
350855276.06 318150266.82 275392551.9 229938605.36 193880318.49 152535587.43 111585024.2 77819376.839 42281018.631 
393490437.11 346939269.92 307324279.11 275221508.42 236342674.14 193167053.07 157963231.46 112510661.51 72204295.631 
41445170.301 18043233.789 -954297.79247 1718050.0612 342874.50013 284949.13657 1001274.5881 513685.26883 251870.17467 
407952.56444 949884.4709 2134834.3591 653554.88719 444156.0233 802610.05012 535406.96977 2491864.5998 224266.24411 
850843.26231 1555792.7728 3990132.6004 13598218.051 4361324.7619 9581520.8586 470560835.82 412623152.28 370657718.39 
335501879.2 297241146.93 251952611.13 217143116.26 178796687.28 137884788.43 98434059.799 64099566.772 21522973.275 
11298930.8 420324874.32 372160048.61 335547913.79 294057502.85 257080318.08 215076812.86 177073881.85 138720175.2 
100903440.14 59306755.246 23569651.439 -186440069.78 -63552147.858 7522848.1267 4758370.458 5320250.6915 -744589.83921 
2208796.3706 2129492.1097 2587424.5319 2986583.5191 5761733.1623 3082095.8996 4877493.4568 -61111583.466 5929088.1972 
-225661.07243 202468.08812 2295592.5695 3980973.0554 2310513.1873 1670578.0212 2668837.4948 1090905.0679 3424102.8116 
14595162.518 28678447.765 15338100.646 18919663.195 414061117.4 391020518.64 373097076.99 354588498.38 334237646.62 
313954717.89 294274814.58 256066077.98 228798689.28 216366231.87 195130657.85 177359390.5 153781336.58 138443727.48 
111309160.91 99584033.879 79535539.81 58943739.028 21312439.177 275447885.09 40687447.186 -23723229.322 2237813.261 
12651191.465 2045029.4785 -92102.939865 2343919.3364 1551840.9009 785943.64563 2466740.3855 2405993.5422 583965.23648 
154820.23965 1443064.8413 2768718.3594 488919.75586 3019126.8689 347426.85702 1775965.0265 260026.085 1946519.5165 
1528887.8799 78664847.749 5996199.8109 12085770.356 7339037.0998 13094612.734 10173689.737 11938457.371 9431034.296 
11699791.016 14064960.693 8894409.3227 15727458.075 8303936.1295 13767842.407 6746469.1324 13657047.658 7978244.7983 
13150882.416 6698085.9049 9905696.07 11782503.317 67073022.628 10085982.218 5650958.2207 12421305.691 9216716.5774 
14685622.202 10361753.835 9845767.4494 9812124.0101 12831701.534 11618185.187 7689057.6473 13252959.729 12979104.922 
6718606.8311 14105311.198 8823721.8998 7074350.8992 13197993.878 10904671.511 12146265.053 11459325.709 13746854.215 
12078011.756 12143542.663 217267494.95 -69035588.595 -83843782.016 219470665.16 10220372.697 9184067.8246 8142921.2625 
11174117.594 8599650.5939 10573748.21 8608012.0334 5264681.9152 17026747.181 11402130.039 7362992.6826 13489953.065 
8468661.2307 13439135.323 7505287.1372 6414520.8506 191554225.12 1328423.6767 13858665.117 10079900.343 190333601.74 
4108451.4736 1474144.3041 93960124.388 9397436.8799 96003896.88 83850233.81 82252708.266 11955538.059 8693226.4668 
12813588.534 790441.85641 1100067.9413 
Intermediate%20Principal%20Stress 1 228 double
1765620.2842 -936043.84098 3035540.4965 -1315360.1096 -194074949.78 175181149.19 -164402126.86 189675169.35 6218456.9361 
-77782.208287 -122590.59479 -263706.24477 753999.32165 -1102716.1541 2078329.2596 251605.46696 -669905.85727 -574833.54724 
-8653822.5656 2690858.5604 2225607.6377 -31586.543713 -160371.46456 -149212.22699 577835.15972 183066.39388 1949888.6176 
-227083.4223 -6920642.1324 -2912692.3345 -183843.59309 -169493.19562 98784.995219 580616.9167 -833050.07404 -147513.38556 
-374223.10263 -14000.417388 -24519079.392 -1355161.2212 -4546.0165811 -136067.99892 -833128.04506 1336070.7752 -1989861.9533 
-113328.75481 379731.27279 819806.52772 -670513.68353 -7969612.8487 -431272.01043 198578003.79 80042279.822 5307341.0025 
-1161424.8429 -909331.58611 3137783.3907 1783054.9252 961627.52738 3539154.3464 2576918.9695 -1235406.7425 -496850.60196 
-1265053.9315 73352436.227 4387633.0561 5907053.6673 4218917.1354 -1274683.7208 1175293.92 543398.87857 3132258.3537 
3971149.659 3588686.0923 -2478071.4462 -195476998.06 -92961121.851 -1795208.823 2169243.7522 3337332.0202 -3801128.0982 
1712189.7414 1188251.9937 2252539.854 2104798.4608 1297728.5156 -53605.198246 2873931.8057 -84019322.884 -5037489.6409 
-3529080.7553 -2436664.5719 889598.97964 863622.60912 208812.4892 -103065.74161 603955.91562 -1789790.4169 1062893.3939 
194917.6975 5922458.7337 1019977.0087 -4116920.629 54067724.167 6203433.6093 3577674.496 1853741.7755 2664745.6286 
1237679.2982 2180616.4002 1386079.3517 -1251382.2127 1181813.9561 -595606.19228 1231767.2261 1972875.0948 2575020.0738 
-40072.933668 1787937.5072 1294736.1739 1497875.6539 -677426.37554 -83294.793232 -362887.4498 -44267202.282 -145631.81644 
3317671.3516 -355511.21069 -2149630.855 -1639232.3894 -44068.984401 204869.2786 -1998771.1243 878698.69239 -1810519.1881 
-314651.12764 391756.89041 2405391.8309 -345980.39929 -473333.40479 -550454.29697 562877.61092 -103739.55039 796199.76161 
1090820.8935 54133990.258 -7632146.769 -1644312.2906 -1641908.7705 -2286687.1319 -876251.73072 -2647794.9651 1656193.1372 
-406503.81543 -956944.60762 -2402071.8962 218624.16158 -618554.21126 -722254.21578 -2132961.9806 -1888325.9661 -1924416.1888 
-2636635.514 -1599158.7608 -375898.63392 -353535.74445 46942141.018 -2356041.5222 -5151815.0873 -2473337.0497 -1315845.5503 
-1999495.2493 -598747.92727 -270603.93463 2295018.3138 -969484.79009 -933727.50495 -78184.802162 -1991769.2159 -1816044.5768 
-2030681.1414 -1431372.9171 -823024.45283 842577.71805 -88249.285442 1185112.2841 420157.55409 2031084.0519 -908854.76798 
-849898.25562 2130054.9846 88634487.929 -81442031.903 -90624721.498 83644357.11 -421041.0824 144725.10351 3379324.8388 
532537.93502 3525605.922 -235009.21331 3177154.791 -13411.735478 -3298911.7532 351701.37119 880220.04771 360337.28989 
-464669.29459 -140578.04457 -367887.68551 -11485732.354 1294602.0972 -25064884.118 808039.44808 -940910.66988 -8675977.7307 
1817555.1902 113586.6964 -1332814.8313 -285480.02762 380699.45108 1693016.8675 2277135.2685 -3857449.4065 -581883.77106 
108969.06631 -544730.60207 -1956900.0733 
Minor%20Principal%20Stress 1 228 double
-8830717.3469 -9595470.9459 -10314564.549 -5512327.8387 -468907471.32 122854689.46 -461625638.78 140738716.15 -5071925.7579 
-347986.85542 -646098.22838 -588941.65357 -1004138.681 -2171187.3342 -290545.68995 -1302884.6697 -2222302.9813 -1086617.0837 
-23494394.542 49031.51902 -200059.74368 -368478.77686 -1879951.6708 -1012279.842 406328.38106 -189305.90566 -607882.24835 
-1677039.0786 -401297931.66 -359169629.87 -320957956.47 -274625173.9 -235309392.13 -197147137.5 -164538735.19 -123364361.79 
-84535001.462 -37413735.954 -395442874.97 -354352936.67 -311592431.31 -276417259.65 -240272106.92 -199545267.37 -157150147.29 
-125280172.31 -80873932.046 -41650043.128 -11339692.368 -10574871.913 -8948116.8482 191365160.39 19656867.898 2234720.6059 
-2399234.3609 -3564990.3487 708555.47503 209088.81674 -547448.80435 -325945.78074 -962021.76895 -2619313.0296 -4632709.6733 
-5256856.868 31815189.451 2198018.3384 3465742.5439 1345950.0136 -4081344.361 485122.21538 -1354665.7329 1747226.4441 
2851290.1966 811638.66178 -4809059.9923 -465147932.16 -434426330.29 -370973720.3 -332636824.21 -293794332.71 -253014002.06 
-216644866.11 -174751304.1 -136416244.39 -96624591.98 -59035831.678 -18676359.301 -7632955.2624 -426018593.65 -374521308.56 
-332667294.17 -292619380.52 -259206961.55 -215003485.66 -175630451.68 -137851760.28 -99539774.41 -57535369.651 -25605407.206 
-8834402.2155 -8935326.499 -6744900.6547 -32641582.566 28707758.429 -12396692.253 -1013391.4813 1559589.843 -851249.25156 
-28391.990314 -1385470.9792 -2449497.3298 -1699947.0663 260978.17428 -1503611.6618 -149703.82234 435275.32589 1933622.4445 
-406547.38059 860228.6136 707045.01606 -1628087.6822 -3600860.8012 -240953.89032 -1191339.7362 -411330268.4 -372804301.54 
-394400162.82 -333370673.27 -359823296.21 -294914986.95 -314822667.22 -234750445.92 -254251939.26 -215542002.23 -158700845.05 
-175286212.91 -135904357.73 -96252550.19 -124462878.36 -59016451.464 -85512790.16 -20624810.637 -275174825.73 -199945474.28 
-37013619.773 10402661.993 -17569463.042 -10437648.066 -16922968.329 -11676965.602 -12180650.706 -10924682.406 -13506577.433 
-13116856.2 -8352947.0858 -14267380.426 -10360993.237 -15923845.918 -8640943.1913 -16905417.152 -9419771.6918 -16978728.61 
-11554476.902 -14721381.144 -9632373.036 -9354671.5725 7427136.3536 -9633360.6957 -25617023.133 -11315118.642 -11933856.227 
-10462406.952 -12694559.907 -11826221.515 -14811272.324 -8665871.7443 -11869728.682 -15618260.145 -8682540.5135 -8750820.3453 
-16613505.69 -10170378.281 -12727986.447 -15862502.617 -13889995.993 -12454686.795 -12885492.907 -8727289.7613 -8146156.4465 
-11265113.5 -7839237.6481 68502217.123 -224134779.5 -218236996.49 59427077.726 -12247572.514 -12078516.928 -11389246.101 
-10372184.529 -11226706.516 -10375423.397 -10860856.824 -16324724.28 -6561025.4279 -9549908.4105 -19796796.73 -8281014.3548 
-12402935.936 -8192261.2781 -14082627.452 -202255028.5 -2133674.1129 -203819609.56 -8345366.5646 -12699839.673 -14997904.007 
-94086156.664 -96044072 -2459343.5569 -13165227.152 -766995.33068 -181585.3772 949776.46515 -8344648.6525 -12688093.696 
-9073021.0007 -85464947.254 -82083479.068 
von%20Mises%20Stress 1 228 double
14594057.448 21487389.562 14628382.638 18953494.719 283208247.32 309677797.74 313972740.61 297302307.72 385001374.58 
351068238.58 318534933.88 275819019.66 230068713.34 195519459.86 151655572.05 112118746.28 79276881.697 43114022.172 
409766151.6 345576898.44 306318708.36 275421695.61 237367507.23 193749240.83 157471219.74 112514243.41 71567580.454 
42415822.776 407433218.23 357240160.81 321729275.85 274712222.91 235501314.38 197938418.5 164383190.35 123417024.84 
84554579.567 37890873.996 384943455.71 354006407.75 311812478.44 276751724.6 240126171.25 201461721.64 156279113.36 
125651704.01 81848031.305 44140484.466 21671726.456 13818997.219 16064559.449 275660036.29 366523488.58 366896337.23 
337283912.31 299487138.78 250038292.22 216151342.41 178594379.72 136319285.96 97674706.503 66037803.124 24352594.568 
14964663.516 369496272.58 368872097 330868270.71 291285695.56 259769704 214247438.54 177487127.23 136285711.28 
97497043.887 57157212.523 27287988.544 274301067.55 357079147.75 373924625.99 336108110.66 298128069.93 250755114.92 
218605782.22 176412059.4 138836529.49 99173223.115 62684887.462 20372407.375 11638734.087 354009457.37 375087364.93 
330802294.08 291511242.21 260802399.75 217442543.52 176899478.44 138644025.37 101191973.02 57240318.387 27923878.837 
20467537.377 32812991.583 19403104.598 44737582.619 373319958.15 394446193.84 371836193.32 352881924.52 333344805.74 
313351992.54 293893468.83 256619286.13 230274681.59 215646310.34 196181842.76 176822406.25 152583071.95 136190538.99 
111532922.63 98263235.331 78536298.379 59070911.017 23587848.266 275610043.26 41470767.421 377754262.76 373856090.5 
402465771.98 334221898.15 358706855.05 295287479.48 315579579.68 235246390.62 254515306.13 217188375.93 158101168.07 
175206769.2 136824797.82 98840106.119 124536447.01 60365167.647 85414815.963 21819537.859 275253149.28 201319298.74 
38325351.906 59891226.591 20491736.76 19661412.729 21246330.006 21660941.907 19359844.773 20049797.797 20205095.87 
21493969.054 19785361.77 20060714.579 22727291.144 21223197.345 19682761.585 20693978.031 20382847.043 21766321.908 
21669430.04 18706022.533 16928225.725 18372316.846 52556254.326 17271592.487 27506465.69 20777936.907 18316983.18 
22163454.031 19975420.768 18782283.851 21856849.092 18866011.409 20357169.89 20555474.448 19472215.489 19224687.459 
20415634.775 21296336.16 18698448.705 20542565.02 23460303.331 20324536.538 21692519.884 17494767.675 19319320.086 
20254740.958 17305609.496 139790676.92 149283118.72 131134301.32 149414210.27 19466831.983 18482625.259 17639559.241 
18660108.853 17839017.46 18145592.135 17401103.918 19493840.686 22137714.577 18154087.215 24568470.901 18987295.635 
18137670.371 18936149.779 18922460.529 200320149.06 191996718.12 193307493.52 19327735.186 19731285.334 202244662.13 
97069437.055 96845105.592 95861168.183 19605108.697 96202179.468 83110375.601 80647445.332 18470017.734 18570794.821 
19036018.155 85595613.3 81697968.787 
